28
10.  20.  30. 40. 50. 60. 70. 80. 90. 100. 120. 140. 160. 180. 200. 250. 300. 350. 400. 450. 500. 600. 700. 800. 900.  1000. 1100. 1200.
1 0 9.6e-11 1e-10 9.1e-11 8.3e-11 7.7e-11 7.3e-11 7e-11 6.9e-11 6.7e-11 6.7e-11 6.6e-11 6.6e-11 6.6e-11 6.7e-11 6.7e-11 6.9e-11 7.1e-11 7.2e-11 7.4e-11 7.5e-11 7.6e-11 7.8e-11 8e-11 8.1e-11 8.2e-11 8.1e-11 8.1e-11 8e-11 
2 0 9.6e-11 9.9e-11 9.7e-11 9.5e-11 9.2e-11 9e-11 8.9e-11 8.7e-11 8.6e-11 6.8e-11 8.5e-11 8.4e-11 8.4e-11 8.4e-11 8.5e-11 8.7e-11 8.8e-11 9.1e-11 9.3e-11 9.5e-11 9.6e-11 1e-10 1.02e-10 1.04e-10 1.04e-10 1.04e-10 1.04e-10 1.03e-10 
2 1 1.75e-10 1.84e-10 1.84e-10 1.81e-10 1.79e-10 1.77e-10 1.76e-10 1.75e-10 1.75e-10 1.75e-10 1.77e-10 1.79e-10 1.81e-10 1.84e-10 1.88e-10 1.96e-10 2.04e-10 2.12e-10 2.19e-10 2.26e-10 2.32e-10 2.43e-10 2.51e-10 2.57e-10 2.6e-10 2.62e-10 2.61e-10 2.6e-10 
