41
                                    5             10             20             30             40             50             60             70             80             90            100            110            120            130            140            150            160            170            180            190            200            210            220            230            240            250            260            270            280            290            300            310            320            330            340            350            360            370            380            390            400
    1      1      4.2200e-10     5.2800e-10     7.3100e-10     9.3800e-10     1.1200e-09     1.3200e-09     1.4500e-09     1.5800e-09     1.6900e-09     1.8000e-09     1.9000e-09     1.9600e-09     2.0100e-09     2.0800e-09     2.1300e-09     2.1700e-09     2.2100e-09     2.2500e-09     2.2900e-09     2.3200e-09     2.3500e-09     2.3800e-09     2.4000e-09     2.4100e-09     2.4300e-09     2.4500e-09     2.4700e-09     2.4900e-09     2.5000e-09     2.5100e-09     2.5200e-09     2.5300e-09     2.5400e-09     2.5500e-09     2.5600e-09     2.5700e-09     2.5800e-09     2.5800e-09     2.5900e-09     2.6000e-09     2.6000e-09
    1      2      3.7700e-11     6.6900e-11     8.4700e-11     9.3600e-11     9.6900e-11     1.0400e-10     1.0400e-10     1.1100e-10     1.0900e-10     1.0800e-10     1.1100e-10     1.1500e-10     1.1400e-10     1.1400e-10     1.1500e-10     1.1600e-10     1.1500e-10     1.1600e-10     1.1400e-10     1.1400e-10     1.1500e-10     1.1700e-10     1.1500e-10     1.1600e-10     1.1500e-10     1.1600e-10     1.1500e-10     1.1400e-10     1.1400e-10     1.1400e-10     1.1400e-10     1.1400e-10     1.1400e-10     1.1400e-10     1.1300e-10     1.1300e-10     1.1300e-10     1.1300e-10     1.1300e-10     1.1200e-10     1.1200e-10
    1      3      9.8500e-12     5.6700e-11     1.4000e-10     1.8600e-10     2.1400e-10     2.3000e-10     2.4200e-10     2.4800e-10     2.5300e-10     2.5500e-10     2.6200e-10     2.6100e-10     2.6400e-10     2.6500e-10     2.6600e-10     2.6700e-10     2.6800e-10     2.6700e-10     2.6700e-10     2.6800e-10     2.7000e-10     2.7000e-10     2.6900e-10     2.6900e-10     2.7100e-10     2.7100e-10     2.7100e-10     2.7100e-10     2.7200e-10     2.7300e-10     2.7400e-10     2.7400e-10     2.7300e-10     2.7300e-10     2.7300e-10     2.7300e-10     2.7400e-10     2.7500e-10     2.7500e-10     2.7600e-10     2.7600e-10
    1      4      9.8900e-14     2.6600e-12     1.3900e-11     2.4100e-11     3.2000e-11     3.8500e-11     4.4200e-11     4.9700e-11     5.4200e-11     5.9200e-11     6.3300e-11     6.6400e-11     7.0700e-11     7.4300e-11     7.7800e-11     8.0600e-11     8.3300e-11     8.6400e-11     8.8900e-11     9.1300e-11     9.3700e-11     9.5900e-11     9.7800e-11     9.9700e-11     1.0200e-10     1.0400e-10     1.0500e-10     1.0700e-10     1.0900e-10     1.1000e-10     1.1100e-10     1.1200e-10     1.1300e-10     1.1400e-10     1.1600e-10     1.1700e-10     1.1800e-10     1.1900e-10     1.2000e-10     1.2100e-10     1.2200e-10
    1      5      1.1300e-15     2.9600e-13     4.7000e-12     1.1600e-11     1.8200e-11     2.3600e-11     2.8300e-11     3.2200e-11     3.5400e-11     3.8300e-11     4.0300e-11     4.2100e-11     4.4100e-11     4.5900e-11     4.7800e-11     4.9100e-11     5.0300e-11     5.1300e-11     5.2400e-11     5.3400e-11     5.4100e-11     5.5100e-11     5.5900e-11     5.6800e-11     5.7600e-11     5.8500e-11     5.9300e-11     6.0200e-11     6.1100e-11     6.1700e-11     6.2400e-11     6.3000e-11     6.3700e-11     6.4300e-11     6.4900e-11     6.5700e-11     6.6400e-11     6.7200e-11     6.7900e-11     6.8500e-11     6.9100e-11
    1      6      9.2000e-19     4.2100e-15     2.9900e-13     1.3000e-12     2.8300e-12     4.7000e-12     6.8000e-12     9.1000e-12     1.1500e-11     1.4000e-11     1.6600e-11     1.9200e-11     2.1900e-11     2.4600e-11     2.7300e-11     3.0000e-11     3.2600e-11     3.5200e-11     3.7700e-11     4.0200e-11     4.2700e-11     4.5100e-11     4.7400e-11     4.9800e-11     5.2000e-11     5.4200e-11     5.6400e-11     5.8500e-11     6.0600e-11     6.2500e-11     6.4500e-11     6.6400e-11     6.8200e-11     7.0000e-11     7.1800e-11     7.3400e-11     7.5100e-11     7.6700e-11     7.8300e-11     7.9900e-11     8.1400e-11
    1      7      1.0500e-21     1.2500e-16     4.3500e-14     3.1100e-13     8.4500e-13     1.5600e-12     2.3900e-12     3.2600e-12     4.1500e-12     5.0400e-12     5.9300e-12     6.7300e-12     7.6000e-12     8.3800e-12     9.1800e-12     9.9100e-12     1.0600e-11     1.1300e-11     1.1900e-11     1.2600e-11     1.3200e-11     1.3800e-11     1.4300e-11     1.4900e-11     1.5400e-11     1.6000e-11     1.6500e-11     1.7000e-11     1.7500e-11     1.7900e-11     1.8300e-11     1.8800e-11     1.9200e-11     1.9700e-11     2.0100e-11     2.0500e-11     2.0900e-11     2.1400e-11     2.1800e-11     2.2100e-11     2.2500e-11
    1      8      7.5800e-26     5.2000e-19     1.5000e-15     2.2900e-14     9.6300e-14     2.4200e-13     4.7200e-13     7.9000e-13     1.2000e-12     1.6900e-12     2.2700e-12     2.9400e-12     3.6900e-12     4.5100e-12     5.3900e-12     6.3300e-12     7.3100e-12     8.3400e-12     9.4100e-12     1.0500e-11     1.1600e-11     1.2800e-11     1.4000e-11     1.5100e-11     1.6300e-11     1.7500e-11     1.8800e-11     2.0000e-11     2.1200e-11     2.2400e-11     2.3600e-11     2.4800e-11     2.6000e-11     2.7200e-11     2.8400e-11     2.9600e-11     3.0800e-11     3.1900e-11     3.3100e-11     3.4300e-11     3.5400e-11
    1      9      1.4200e-29     6.2700e-21     1.4100e-16     4.1600e-15     2.3600e-14     6.9200e-14     1.4600e-13     2.5500e-13     3.9400e-13     5.6200e-13     7.5800e-13     9.7100e-13     1.2100e-12     1.4700e-12     1.7400e-12     2.0200e-12     2.3200e-12     2.6300e-12     2.9400e-12     3.2600e-12     3.6000e-12     3.9300e-12     4.2600e-12     4.6000e-12     4.9400e-12     5.2800e-12     5.6200e-12     5.9500e-12     6.2900e-12     6.6300e-12     6.9700e-12     7.3000e-12     7.6300e-12     7.9600e-12     8.2900e-12     8.6100e-12     8.9300e-12     9.2400e-12     9.5500e-12     9.8600e-12     1.0200e-11
    1     10      1.9900e-34     1.3300e-23     3.6800e-18     2.5600e-16     2.2900e-15     9.0800e-15     2.4100e-14     5.0900e-14     9.2900e-14     1.5300e-13     2.3400e-13     3.3900e-13     4.6800e-13     6.2400e-13     8.0800e-13     1.0200e-12     1.2600e-12     1.5200e-12     1.8100e-12     2.1200e-12     2.4600e-12     2.8200e-12     3.2100e-12     3.6100e-12     4.0300e-12     4.4700e-12     4.9200e-12     5.3900e-12     5.8700e-12     6.3600e-12     6.8700e-12     7.3800e-12     7.9100e-12     8.4400e-12     8.9800e-12     9.5300e-12     1.0100e-11     1.0600e-11     1.1200e-11     1.1800e-11     1.2300e-11
    1     11      2.4600e-39     4.3200e-26     1.8600e-19     3.2400e-17     4.5200e-16     2.3100e-15     7.1200e-15     1.6500e-14     3.1800e-14     5.4200e-14     8.4700e-14     1.2400e-13     1.7300e-13     2.3100e-13     2.9900e-13     3.7800e-13     4.6600e-13     5.6400e-13     6.7200e-13     7.9000e-13     9.1700e-13     1.0500e-12     1.2000e-12     1.3500e-12     1.5100e-12     1.6800e-12     1.8500e-12     2.0300e-12     2.2100e-12     2.4100e-12     2.6000e-12     2.8000e-12     3.0100e-12     3.2100e-12     3.4300e-12     3.6400e-12     3.8600e-12     4.0800e-12     4.3000e-12     4.5200e-12     4.7500e-12
    1     12      5.6100e-45     4.3600e-29     3.8400e-21     1.8100e-18     4.1500e-17     2.8800e-16     1.1000e-15     3.0200e-15     6.7100e-15     1.2900e-14     2.2500e-14     3.6300e-14     5.5200e-14     8.0000e-14     1.1200e-13     1.5100e-13     1.9800e-13     2.5400e-13     3.2000e-13     3.9400e-13     4.7900e-13     5.7300e-13     6.7800e-13     7.9200e-13     9.1600e-13     1.0500e-12     1.1900e-12     1.3500e-12     1.5100e-12     1.6800e-12     1.8500e-12     2.0400e-12     2.2300e-12     2.4400e-12     2.6400e-12     2.8600e-12     3.0800e-12     3.3000e-12     3.5400e-12     3.7700e-12     4.0200e-12
    1     13          0.0000     2.7600e-32     8.6300e-23     1.3000e-19     5.3800e-18     5.3100e-17     2.5700e-16     8.2500e-16     2.0500e-15     4.2800e-15     7.9100e-15     1.3300e-14     2.1000e-14     3.1300e-14     4.4500e-14     6.1100e-14     8.1400e-14     1.0600e-13     1.3400e-13     1.6700e-13     2.0500e-13     2.4700e-13     2.9400e-13     3.4700e-13     4.0400e-13     4.6600e-13     5.3300e-13     6.0600e-13     6.8300e-13     7.6500e-13     8.5100e-13     9.4300e-13     1.0400e-12     1.1400e-12     1.2400e-12     1.3500e-12     1.4600e-12     1.5800e-12     1.7000e-12     1.8200e-12     1.9500e-12
    1     14          0.0000     7.4300e-36     9.7600e-25     5.0700e-21     3.8700e-19     5.5300e-18     3.4300e-17     1.3300e-16     3.8200e-16     9.0100e-16     1.8500e-15     3.4100e-15     5.8300e-15     9.3500e-15     1.4200e-14     2.0800e-14     2.9300e-14     4.0100e-14     5.3500e-14     6.9700e-14     8.9000e-14     1.1200e-13     1.3800e-13     1.6800e-13     2.0200e-13     2.3900e-13     2.8100e-13     3.2800e-13     3.7800e-13     4.3300e-13     4.9200e-13     5.5500e-13     6.2300e-13     6.9500e-13     7.7100e-13     8.5100e-13     9.3600e-13     1.0200e-12     1.1200e-12     1.2100e-12     1.3100e-12
    1     15          0.0000     2.1400e-39     1.2300e-26     2.3000e-22     3.3700e-20     7.2100e-19     5.9000e-18     2.7900e-17     9.3300e-17     2.4800e-16     5.5700e-16     1.1100e-15     2.0100e-15     3.3900e-15     5.3800e-15     8.1300e-15     1.1800e-14     1.6600e-14     2.2600e-14     3.0000e-14     3.9000e-14     4.9800e-14     6.2400e-14     7.7100e-14     9.3800e-14     1.1300e-13     1.3400e-13     1.5800e-13     1.8500e-13     2.1400e-13     2.4500e-13     2.7900e-13     3.1600e-13     3.5600e-13     3.9900e-13     4.4400e-13     4.9200e-13     5.4300e-13     5.9600e-13     6.5100e-13     7.0900e-13
    1     16          0.0000     3.4200e-43     9.5800e-29     6.7300e-24     1.9400e-21     6.2300e-20     6.7400e-19     3.9000e-18     1.5300e-17     4.6200e-17     1.1600e-16     2.5300e-16     4.9800e-16     9.0300e-16     1.5300e-15     2.4600e-15     3.7800e-15     5.5800e-15     7.9700e-15     1.1100e-14     1.5000e-14     1.9800e-14     2.5700e-14     3.2800e-14     4.1200e-14     5.0900e-14     6.2200e-14     7.5100e-14     8.9600e-14     1.0600e-13     1.2400e-13     1.4400e-13     1.6600e-13     1.9000e-13     2.1700e-13     2.4500e-13     2.7500e-13     3.0700e-13     3.4200e-13     3.7800e-13     4.1600e-13
    1     17          0.0000         0.0000     4.6600e-31     1.6200e-25     1.0400e-22     5.4700e-21     8.2400e-20     6.0800e-19     2.8700e-18     1.0000e-17     2.8200e-17     6.8000e-17     1.4500e-16     2.8100e-16     5.0600e-16     8.5400e-16     1.3700e-15     2.1000e-15     3.1000e-15     4.4400e-15     6.1800e-15     8.3800e-15     1.1100e-14     1.4500e-14     1.8600e-14     2.3400e-14     2.9100e-14     3.5700e-14     4.3300e-14     5.2000e-14     6.1800e-14     7.2800e-14     8.5100e-14     9.8700e-14     1.1400e-13     1.3000e-13     1.4800e-13     1.6700e-13     1.8700e-13     2.0900e-13     2.3200e-13
    1     18          0.0000         0.0000     2.3900e-33     3.6100e-27     4.8800e-24     4.0200e-22     8.2200e-21     7.5900e-20     4.2500e-19     1.7000e-18     5.3900e-18     1.4300e-17     3.3300e-17     6.9800e-17     1.3500e-16     2.4200e-16     4.1000e-16     6.6400e-16     1.0300e-15     1.5400e-15     2.2400e-15     3.1500e-15     4.3400e-15     5.8600e-15     7.7400e-15     1.0100e-14     1.2800e-14     1.6200e-14     2.0100e-14     2.4700e-14     3.0000e-14     3.6100e-14     4.3000e-14     5.0800e-14     5.9500e-14     6.9200e-14     7.9700e-14     9.1300e-14     1.0400e-13     1.1700e-13     1.3100e-13
    1     19          0.0000         0.0000     7.2300e-36     6.0700e-29     1.9500e-25     2.7200e-23     7.9800e-22     9.5900e-21     6.5800e-20     3.1000e-19     1.1200e-18     3.3100e-18     8.4400e-18     1.9100e-17     3.9400e-17     7.5000e-17     1.3400e-16     2.2600e-16     3.6500e-16     5.6600e-16     8.4700e-16     1.2300e-15     1.7400e-15     2.3900e-15     3.2300e-15     4.2700e-15     5.5500e-15     7.1100e-15     8.9600e-15     1.1200e-14     1.3700e-14     1.6700e-14     2.0100e-14     2.4000e-14     2.8300e-14     3.3200e-14     3.8500e-14     4.4400e-14     5.0700e-14     5.7500e-14     6.4700e-14
    1     20          0.0000         0.0000     1.8600e-38     8.9500e-31     6.6900e-27     1.5400e-24     6.2800e-23     9.5800e-22     7.8900e-21     4.3000e-20     1.7500e-19     5.7700e-19     1.6100e-18     3.9600e-18     8.7900e-18     1.7900e-17     3.4100e-17     6.1100e-17     1.0400e-16     1.7000e-16     2.6700e-16     4.0500e-16     5.9700e-16     8.5800e-16     1.2000e-15     1.6500e-15     2.2300e-15     2.9500e-15     3.8500e-15     4.9400e-15     6.2600e-15     7.8400e-15     9.6900e-15     1.1900e-14     1.4300e-14     1.7200e-14     2.0300e-14     2.3900e-14     2.7700e-14     3.1900e-14     3.6400e-14
    1     21          0.0000         0.0000     2.4200e-41     8.8400e-33     1.8500e-28     8.0200e-26     5.0400e-24     1.0600e-22     1.1100e-21     7.3800e-21     3.5400e-20     1.3400e-19     4.2000e-19     1.1400e-18     2.7800e-18     6.1500e-18     1.2600e-17     2.4100e-17     4.3600e-17     7.5300e-17     1.2500e-16     1.9900e-16     3.0700e-16     4.6000e-16     6.7200e-16     9.6000e-16     1.3400e-15     1.8400e-15     2.4800e-15     3.2900e-15     4.2900e-15     5.5300e-15     7.0300e-15     8.8200e-15     1.0900e-14     1.3400e-14     1.6200e-14     1.9500e-14     2.3200e-14     2.7400e-14     3.2100e-14
    2      1      3.8000e-11     3.8800e-11     3.7200e-11     3.7500e-11     3.7100e-11     3.8800e-11     3.8200e-11     4.0200e-11     3.8900e-11     3.8400e-11     3.9200e-11     4.0300e-11     3.9700e-11     3.9600e-11     3.9800e-11     4.0000e-11     3.9700e-11     3.9900e-11     3.9300e-11     3.9100e-11     3.9400e-11     4.0000e-11     3.9500e-11     3.9600e-11     3.9400e-11     3.9400e-11     3.9200e-11     3.8800e-11     3.8700e-11     3.8700e-11     3.8700e-11     3.8700e-11     3.8600e-11     3.8500e-11     3.8400e-11     3.8300e-11     3.8300e-11     3.8200e-11     3.8100e-11     3.7900e-11     3.7900e-11
    2      2      7.9300e-10     8.1900e-10     9.6400e-10     1.1500e-09     1.3300e-09     1.5000e-09     1.6300e-09     1.7600e-09     1.8700e-09     1.9600e-09     2.0500e-09     2.1200e-09     2.1800e-09     2.2400e-09     2.2900e-09     2.3300e-09     2.3700e-09     2.4100e-09     2.4400e-09     2.4700e-09     2.5000e-09     2.5200e-09     2.5400e-09     2.5600e-09     2.5800e-09     2.6000e-09     2.6100e-09     2.6300e-09     2.6400e-09     2.6500e-09     2.6600e-09     2.6700e-09     2.6800e-09     2.6900e-09     2.7000e-09     2.7100e-09     2.7100e-09     2.7200e-09     2.7300e-09     2.7300e-09     2.7400e-09
    2      3      1.3000e-11     4.0200e-11     6.9300e-11     8.0700e-11     8.7000e-11     9.1300e-11     9.5000e-11     9.7400e-11     9.9500e-11     1.0100e-10     1.0600e-10     1.0700e-10     1.0900e-10     1.1000e-10     1.1200e-10     1.1400e-10     1.1500e-10     1.1500e-10     1.1600e-10     1.1700e-10     1.1900e-10     1.2000e-10     1.2000e-10     1.2100e-10     1.2100e-10     1.2200e-10     1.2200e-10     1.2300e-10     1.2400e-10     1.2400e-10     1.2500e-10     1.2500e-10     1.2600e-10     1.2600e-10     1.2600e-10     1.2600e-10     1.2700e-10     1.2700e-10     1.2700e-10     1.2800e-10     1.2800e-10
    2      4      7.4600e-13     1.2400e-11     5.1200e-11     8.1500e-11     1.0200e-10     1.1600e-10     1.2700e-10     1.3500e-10     1.4200e-10     1.4700e-10     1.5000e-10     1.5300e-10     1.5600e-10     1.5900e-10     1.6200e-10     1.6400e-10     1.6600e-10     1.6800e-10     1.6800e-10     1.6900e-10     1.7100e-10     1.7200e-10     1.7200e-10     1.7300e-10     1.7500e-10     1.7600e-10     1.7700e-10     1.7800e-10     1.7900e-10     1.8000e-10     1.8100e-10     1.8200e-10     1.8200e-10     1.8300e-10     1.8300e-10     1.8400e-10     1.8500e-10     1.8600e-10     1.8600e-10     1.8700e-10     1.8800e-10
    2      5      2.1700e-15     3.2900e-13     4.1000e-12     9.6500e-12     1.5100e-11     2.0100e-11     2.4700e-11     2.9300e-11     3.3600e-11     3.7700e-11     4.1000e-11     4.4900e-11     4.8800e-11     5.2200e-11     5.5600e-11     5.8500e-11     6.1500e-11     6.4400e-11     6.7100e-11     6.9800e-11     7.2200e-11     7.4600e-11     7.7000e-11     7.9500e-11     8.1600e-11     8.3700e-11     8.5700e-11     8.7700e-11     8.9500e-11     9.1100e-11     9.2600e-11     9.4300e-11     9.5900e-11     9.7400e-11     9.9000e-11     1.0100e-10     1.0200e-10     1.0300e-10     1.0400e-10     1.0600e-10     1.0700e-10
    2      6      8.1400e-18     1.9600e-14     9.5600e-13     3.4600e-12     6.5600e-12     9.6500e-12     1.2500e-11     1.5100e-11     1.7400e-11     1.9600e-11     2.1400e-11     2.3000e-11     2.4600e-11     2.6000e-11     2.7500e-11     2.8700e-11     2.9900e-11     3.0900e-11     3.1900e-11     3.2800e-11     3.3700e-11     3.4500e-11     3.5300e-11     3.6100e-11     3.6900e-11     3.7700e-11     3.8400e-11     3.9300e-11     4.0000e-11     4.0700e-11     4.1400e-11     4.2000e-11     4.2600e-11     4.3200e-11     4.3800e-11     4.4400e-11     4.5000e-11     4.5600e-11     4.6100e-11     4.6700e-11     4.7300e-11
    2      7      2.2000e-21     1.7400e-16     5.1600e-14     3.6000e-13     9.9700e-13     1.9100e-12     3.0400e-12     4.3400e-12     5.7900e-12     7.3500e-12     9.0300e-12     1.0700e-11     1.2600e-11     1.4400e-11     1.6300e-11     1.8200e-11     2.0100e-11     2.2000e-11     2.3900e-11     2.5800e-11     2.7700e-11     2.9600e-11     3.1400e-11     3.3300e-11     3.5100e-11     3.6900e-11     3.8700e-11     4.0400e-11     4.2100e-11     4.3800e-11     4.5400e-11     4.7000e-11     4.8600e-11     5.0200e-11     5.1700e-11     5.3300e-11     5.4700e-11     5.6200e-11     5.7600e-11     5.9000e-11     6.0400e-11
    2      8      8.3800e-25     2.8400e-18     5.3200e-15     6.6800e-14     2.4100e-13     5.3100e-13     9.1200e-13     1.3600e-12     1.8500e-12     2.3600e-12     2.8900e-12     3.4400e-12     3.9800e-12     4.5200e-12     5.0700e-12     5.6100e-12     6.1400e-12     6.6600e-12     7.1700e-12     7.6800e-12     8.1500e-12     8.6700e-12     9.1300e-12     9.6000e-12     1.0100e-11     1.0500e-11     1.0900e-11     1.1400e-11     1.1800e-11     1.2300e-11     1.2700e-11     1.3100e-11     1.3500e-11     1.3900e-11     1.4200e-11     1.4600e-11     1.5000e-11     1.5400e-11     1.5800e-11     1.6100e-11     1.6500e-11
    2      9      3.2700e-29     9.2800e-21     1.7500e-16     4.9900e-15     2.8500e-14     8.5600e-14     1.8700e-13     3.3900e-13     5.4600e-13     8.0800e-13     1.1300e-12     1.5000e-12     1.9400e-12     2.4200e-12     2.9500e-12     3.5300e-12     4.1500e-12     4.8000e-12     5.4900e-12     6.2100e-12     6.9600e-12     7.7300e-12     8.5200e-12     9.3400e-12     1.0200e-11     1.1000e-11     1.1900e-11     1.2700e-11     1.3600e-11     1.4500e-11     1.5400e-11     1.6200e-11     1.7100e-11     1.8000e-11     1.8900e-11     1.9800e-11     2.0700e-11     2.1600e-11     2.2500e-11     2.3300e-11     2.4200e-11
    2     10      1.5000e-33     5.4700e-23     1.1000e-17     6.7300e-16     5.5000e-15     2.0100e-14     4.9200e-14     9.5500e-14     1.6000e-13     2.4400e-13     3.4500e-13     4.6500e-13     6.0000e-13     7.5100e-13     9.1800e-13     1.1000e-12     1.2900e-12     1.4900e-12     1.7000e-12     1.9200e-12     2.1500e-12     2.3900e-12     2.6300e-12     2.8800e-12     3.1400e-12     3.3900e-12     3.6600e-12     3.9200e-12     4.1900e-12     4.4600e-12     4.7300e-12     5.0000e-12     5.2800e-12     5.5500e-12     5.8300e-12     6.1100e-12     6.3800e-12     6.6600e-12     6.9300e-12     7.2100e-12     7.4800e-12
    2     11      6.7300e-39     7.1100e-26     2.4000e-19     3.8600e-17     5.2200e-16     2.6500e-15     8.2500e-15     1.9400e-14     3.8400e-14     6.7100e-14     1.0800e-13     1.6200e-13     2.3100e-13     3.1600e-13     4.1900e-13     5.3900e-13     6.7700e-13     8.3300e-13     1.0100e-12     1.2000e-12     1.4100e-12     1.6400e-12     1.8800e-12     2.1400e-12     2.4100e-12     2.6900e-12     2.9900e-12     3.3100e-12     3.6300e-12     3.9600e-12     4.3100e-12     4.6600e-12     5.0300e-12     5.4000e-12     5.7800e-12     6.1600e-12     6.5500e-12     6.9500e-12     7.3600e-12     7.7600e-12     8.1800e-12
    2     12      3.0800e-44     1.3100e-28     8.7500e-21     3.7900e-18     8.3400e-17     5.5900e-16     2.0700e-15     5.4500e-15     1.1600e-14     2.1400e-14     3.5600e-14     5.4800e-14     7.9700e-14     1.1100e-13     1.4800e-13     1.9300e-13     2.4400e-13     3.0300e-13     3.6900e-13     4.4200e-13     5.2200e-13     6.0900e-13     7.0400e-13     8.0500e-13     9.1300e-13     1.0300e-12     1.1500e-12     1.2700e-12     1.4100e-12     1.5400e-12     1.6800e-12     1.8300e-12     1.9800e-12     2.1400e-12     2.3000e-12     2.4600e-12     2.6300e-12     2.8000e-12     2.9700e-12     3.1500e-12     3.3200e-12
    2     13          0.0000     5.4500e-32     1.2800e-22     1.7300e-19     6.7000e-18     6.3700e-17     3.0100e-16     9.5600e-16     2.3700e-15     4.9600e-15     9.2200e-15     1.5700e-14     2.4900e-14     3.7500e-14     5.4100e-14     7.5100e-14     1.0100e-13     1.3200e-13     1.7000e-13     2.1300e-13     2.6300e-13     3.1900e-13     3.8300e-13     4.5300e-13     5.3000e-13     6.1400e-13     7.0500e-13     8.0300e-13     9.0800e-13     1.0200e-12     1.1400e-12     1.2600e-12     1.3900e-12     1.5300e-12     1.6700e-12     1.8200e-12     1.9700e-12     2.1300e-12     2.2900e-12     2.4500e-12     2.6300e-12
    2     14          0.0000     2.1100e-35     2.1000e-24     1.0000e-20     7.3000e-19     1.0100e-17     6.1300e-17     2.3100e-16     6.4700e-16     1.4900e-15     2.9600e-15     5.3200e-15     8.8100e-15     1.3700e-14     2.0300e-14     2.8900e-14     3.9700e-14     5.2900e-14     6.8800e-14     8.7700e-14     1.1000e-13     1.3500e-13     1.6300e-13     1.9600e-13     2.3100e-13     2.7100e-13     3.1400e-13     3.6100e-13     4.1200e-13     4.6700e-13     5.2500e-13     5.8800e-13     6.5400e-13     7.2300e-13     7.9600e-13     8.7300e-13     9.5300e-13     1.0400e-12     1.1200e-12     1.2100e-12     1.3100e-12
    2     15          0.0000     4.9600e-39     2.1400e-26     3.5500e-22     4.8500e-20     9.8300e-19     7.7300e-18     3.5400e-17     1.1600e-16     3.0100e-16     6.6900e-16     1.3200e-15     2.3800e-15     4.0000e-15     6.3300e-15     9.5800e-15     1.3900e-14     1.9600e-14     2.6700e-14     3.5600e-14     4.6300e-14     5.9200e-14     7.4300e-14     9.1900e-14     1.1200e-13     1.3500e-13     1.6100e-13     1.8900e-13     2.2100e-13     2.5600e-13     2.9300e-13     3.3400e-13     3.7900e-13     4.2600e-13     4.7700e-13     5.3000e-13     5.8700e-13     6.4700e-13     7.1000e-13     7.7600e-13     8.4400e-13
    2     16          0.0000     1.0200e-42     2.1400e-28     1.3600e-23     3.7000e-21     1.1500e-19     1.2000e-18     6.7900e-18     2.6000e-17     7.6500e-17     1.8700e-16     3.9900e-16     7.6700e-16     1.3600e-15     2.2500e-15     3.5400e-15     5.3200e-15     7.6900e-15     1.0800e-14     1.4700e-14     1.9500e-14     2.5400e-14     3.2500e-14     4.0800e-14     5.0500e-14     6.1700e-14     7.4500e-14     8.8900e-14     1.0500e-13     1.2300e-13     1.4300e-13     1.6500e-13     1.8800e-13     2.1400e-13     2.4200e-13     2.7200e-13     3.0400e-13     3.3700e-13     3.7300e-13     4.1100e-13     4.5000e-13
    2     17          0.0000         0.0000     9.4000e-31     2.9100e-25     1.7300e-22     8.5800e-21     1.2300e-19     8.7300e-19     3.9800e-18     1.3500e-17     3.7100e-17     8.7300e-17     1.8300e-16     3.5000e-16     6.2100e-16     1.0400e-15     1.6500e-15     2.5200e-15     3.7000e-15     5.2600e-15     7.2900e-15     9.8600e-15     1.3100e-14     1.7000e-14     2.1700e-14     2.7200e-14     3.3800e-14     4.1400e-14     5.0100e-14     6.0000e-14     7.1200e-14     8.3700e-14     9.7600e-14     1.1300e-13     1.3000e-13     1.4800e-13     1.6800e-13     1.8900e-13     2.1200e-13     2.3600e-13     2.6200e-13
    2     18          0.0000         0.0000     5.4100e-33     7.3500e-27     9.3800e-24     7.4300e-22     1.4700e-20     1.3200e-19     7.2100e-19     2.8200e-18     8.7300e-18     2.2700e-17     5.1600e-17     1.0600e-16     2.0000e-16     3.5200e-16     5.8700e-16     9.3300e-16     1.4200e-15     2.0900e-15     2.9900e-15     4.1600e-15     5.6500e-15     7.5200e-15     9.8100e-15     1.2600e-14     1.5900e-14     1.9800e-14     2.4400e-14     2.9700e-14     3.5800e-14     4.2700e-14     5.0500e-14     5.9300e-14     6.8900e-14     7.9600e-14     9.1300e-14     1.0400e-13     1.1800e-13     1.3200e-13     1.4700e-13
    2     19          0.0000         0.0000     1.6900e-35     1.2400e-28     3.6600e-25     4.8000e-23     1.3400e-21     1.5300e-20     1.0100e-19     4.6000e-19     1.6100e-18     4.6400e-18     1.1500e-17     2.5600e-17     5.1700e-17     9.6900e-17     1.7000e-16     2.8400e-16     4.5400e-16     6.9600e-16     1.0300e-15     1.4800e-15     2.0800e-15     2.8500e-15     3.8200e-15     5.0300e-15     6.5000e-15     8.2900e-15     1.0400e-14     1.2900e-14     1.5800e-14     1.9200e-14     2.3000e-14     2.7400e-14     3.2200e-14     3.7700e-14     4.3600e-14     5.0100e-14     5.7200e-14     6.4700e-14     7.2700e-14
    2     20          0.0000         0.0000     4.2000e-38     1.8300e-30     1.2900e-26     2.8500e-24     1.1200e-22     1.6700e-21     1.3400e-20     7.1100e-20     2.8300e-19     9.1100e-19     2.4900e-18     6.0000e-18     1.3100e-17     2.6100e-17     4.8800e-17     8.6100e-17     1.4400e-16     2.3200e-16     3.5900e-16     5.3800e-16     7.8400e-16     1.1100e-15     1.5400e-15     2.1000e-15     2.8000e-15     3.6700e-15     4.7400e-15     6.0300e-15     7.5800e-15     9.4200e-15     1.1600e-14     1.4100e-14     1.6900e-14     2.0100e-14     2.3700e-14     2.7700e-14     3.2000e-14     3.6700e-14     4.1800e-14
    2     21          0.0000         0.0000     5.2800e-41     1.7300e-32     3.4000e-28     1.4000e-25     8.4600e-24     1.7100e-22     1.7400e-21     1.1300e-20     5.2700e-20     1.9400e-19     5.9800e-19     1.6000e-18     3.8200e-18     8.3300e-18     1.6800e-17     3.1800e-17     5.6900e-17     9.7200e-17     1.5900e-16     2.5200e-16     3.8500e-16     5.7300e-16     8.3100e-16     1.1800e-15     1.6400e-15     2.2300e-15     2.9800e-15     3.9300e-15     5.1100e-15     6.5500e-15     8.2800e-15     1.0300e-14     1.2700e-14     1.5600e-14     1.8800e-14     2.2400e-14     2.6500e-14     3.1200e-14     3.6300e-14
    3      1      5.4500e-11     5.9600e-11     6.4200e-11     6.4800e-11     6.4700e-11     6.4200e-11     6.3800e-11     6.2900e-11     6.2200e-11     6.1400e-11     6.2000e-11     6.0600e-11     6.0700e-11     6.0300e-11     5.9800e-11     5.9700e-11     5.9400e-11     5.8800e-11     5.8700e-11     5.8500e-11     5.8700e-11     5.8400e-11     5.7900e-11     5.7800e-11     5.8000e-11     5.7900e-11     5.7800e-11     5.7700e-11     5.7600e-11     5.7800e-11     5.7800e-11     5.7700e-11     5.7600e-11     5.7400e-11     5.7300e-11     5.7300e-11     5.7400e-11     5.7500e-11     5.7500e-11     5.7500e-11     5.7500e-11
    3      2      7.1200e-11     7.3000e-11     7.2300e-11     7.0100e-11     6.8800e-11     6.8400e-11     6.8500e-11     6.8400e-11     6.8600e-11     6.8400e-11     7.0900e-11     7.1300e-11     7.1700e-11     7.2100e-11     7.2700e-11     7.3500e-11     7.3800e-11     7.3800e-11     7.4000e-11     7.4700e-11     7.5400e-11     7.5700e-11     7.6000e-11     7.6300e-11     7.6300e-11     7.6300e-11     7.6600e-11     7.6800e-11     7.7200e-11     7.7600e-11     7.7800e-11     7.7900e-11     7.8000e-11     7.8100e-11     7.8200e-11     7.8300e-11     7.8300e-11     7.8500e-11     7.8700e-11     7.8900e-11     7.9000e-11
    3      3      7.4200e-10     7.8100e-10     9.3800e-10     1.1300e-09     1.3200e-09     1.4900e-09     1.6300e-09     1.7600e-09     1.8700e-09     1.9600e-09     2.0400e-09     2.1200e-09     2.1800e-09     2.2400e-09     2.2900e-09     2.3300e-09     2.3700e-09     2.4100e-09     2.4400e-09     2.4700e-09     2.5000e-09     2.5200e-09     2.5400e-09     2.5600e-09     2.5800e-09     2.5900e-09     2.6100e-09     2.6200e-09     2.6400e-09     2.6500e-09     2.6600e-09     2.6700e-09     2.6800e-09     2.6900e-09     2.7000e-09     2.7100e-09     2.7100e-09     2.7200e-09     2.7300e-09     2.7300e-09     2.7400e-09
    3      4      4.3000e-12     2.1300e-11     4.6800e-11     6.0000e-11     6.7700e-11     7.3300e-11     7.7200e-11     8.0900e-11     8.5200e-11     8.9200e-11     9.1300e-11     9.1600e-11     9.4700e-11     9.7400e-11     9.9600e-11     1.0100e-10     1.0300e-10     1.0500e-10     1.0600e-10     1.0800e-10     1.0900e-10     1.1000e-10     1.1100e-10     1.1200e-10     1.1400e-10     1.1500e-10     1.1600e-10     1.1700e-10     1.1800e-10     1.1900e-10     1.2000e-10     1.2000e-10     1.2000e-10     1.2100e-10     1.2200e-10     1.2300e-10     1.2400e-10     1.2500e-10     1.2500e-10     1.2600e-10     1.2700e-10
    3      5      6.3000e-14     3.2300e-12     2.3200e-11     4.4200e-11     6.0600e-11     7.2400e-11     8.2800e-11     9.0200e-11     9.6300e-11     1.0200e-10     1.0600e-10     1.0900e-10     1.1200e-10     1.1600e-10     1.1900e-10     1.2200e-10     1.2300e-10     1.2500e-10     1.2700e-10     1.2900e-10     1.3000e-10     1.3200e-10     1.3300e-10     1.3400e-10     1.3500e-10     1.3700e-10     1.3800e-10     1.4000e-10     1.4100e-10     1.4200e-10     1.4300e-10     1.4400e-10     1.4400e-10     1.4500e-10     1.4600e-10     1.4700e-10     1.4800e-10     1.4900e-10     1.5000e-10     1.5000e-10     1.5100e-10
    3      6      6.5300e-17     5.4300e-14     1.5700e-12     4.8800e-12     8.7500e-12     1.2600e-11     1.6400e-11     2.0100e-11     2.3600e-11     2.7000e-11     3.0300e-11     3.3300e-11     3.6400e-11     3.9400e-11     4.2300e-11     4.5000e-11     4.7600e-11     5.0100e-11     5.2500e-11     5.4900e-11     5.7200e-11     5.9400e-11     6.1500e-11     6.3500e-11     6.5500e-11     6.7400e-11     6.9300e-11     7.1200e-11     7.2900e-11     7.4600e-11     7.6200e-11     7.7800e-11     7.9300e-11     8.0800e-11     8.2200e-11     8.3600e-11     8.4900e-11     8.6200e-11     8.7500e-11     8.8800e-11     9.0100e-11
    3      7      7.3600e-20     1.6500e-15     2.4700e-13     1.3000e-12     2.9700e-12     4.8900e-12     6.8400e-12     8.7100e-12     1.0500e-11     1.2100e-11     1.3600e-11     1.4900e-11     1.6300e-11     1.7500e-11     1.8700e-11     1.9800e-11     2.0800e-11     2.1800e-11     2.2700e-11     2.3600e-11     2.4500e-11     2.5300e-11     2.6000e-11     2.6800e-11     2.7600e-11     2.8300e-11     2.9000e-11     2.9700e-11     3.0500e-11     3.1000e-11     3.1700e-11     3.2300e-11     3.2900e-11     3.3500e-11     3.4200e-11     3.4800e-11     3.5400e-11     3.6000e-11     3.6600e-11     3.7200e-11     3.7700e-11
    3      8      8.2700e-24     1.0300e-17     1.2200e-14     1.3500e-13     4.6700e-13     1.0200e-12     1.7600e-12     2.6500e-12     3.6800e-12     4.8100e-12     6.0100e-12     7.3100e-12     8.6800e-12     1.0100e-11     1.1500e-11     1.3000e-11     1.4400e-11     1.5900e-11     1.7400e-11     1.9000e-11     2.0400e-11     2.1900e-11     2.3400e-11     2.4900e-11     2.6400e-11     2.7800e-11     2.9200e-11     3.0700e-11     3.2000e-11     3.3400e-11     3.4800e-11     3.6100e-11     3.7500e-11     3.8800e-11     4.0000e-11     4.1300e-11     4.2600e-11     4.3800e-11     4.5000e-11     4.6200e-11     4.7400e-11
    3      9      1.1600e-27     9.5000e-20     8.8000e-16     1.8800e-14     8.8700e-14     2.2900e-13     4.3600e-13     6.9800e-13     1.0000e-12     1.3400e-12     1.7100e-12     2.0800e-12     2.4700e-12     2.8700e-12     3.2700e-12     3.6800e-12     4.0900e-12     4.4900e-12     4.8900e-12     5.2900e-12     5.6900e-12     6.0800e-12     6.4700e-12     6.8600e-12     7.2600e-12     7.6400e-12     8.0100e-12     8.3800e-12     8.7500e-12     9.1200e-12     9.4900e-12     9.8600e-12     1.0200e-11     1.0600e-11     1.0900e-11     1.1300e-11     1.1600e-11     1.2000e-11     1.2300e-11     1.2600e-11     1.3000e-11
    3     10      1.5600e-32     2.0300e-22     2.5500e-17     1.3700e-15     1.0600e-14     3.8300e-14     9.3900e-14     1.8400e-13     3.1400e-13     4.8400e-13     6.9700e-13     9.5300e-13     1.2500e-12     1.5900e-12     1.9700e-12     2.3800e-12     2.8300e-12     3.3000e-12     3.8100e-12     4.3400e-12     4.9000e-12     5.4700e-12     6.0700e-12     6.6900e-12     7.3100e-12     7.9600e-12     8.6100e-12     9.2700e-12     9.9500e-12     1.0600e-11     1.1300e-11     1.2000e-11     1.2700e-11     1.3400e-11     1.4100e-11     1.4800e-11     1.5500e-11     1.6200e-11     1.6900e-11     1.7600e-11     1.8300e-11
    3     11      1.7600e-37     5.8400e-25     1.0700e-18     1.3600e-16     1.6000e-15     7.2400e-15     2.0400e-14     4.3700e-14     7.9000e-14     1.2700e-13     1.8800e-13     2.6300e-13     3.5000e-13     4.5000e-13     5.6100e-13     6.8400e-13     8.1700e-13     9.6000e-13     1.1100e-12     1.2700e-12     1.4400e-12     1.6200e-12     1.8000e-12     1.9900e-12     2.1800e-12     2.3800e-12     2.5800e-12     2.7900e-12     3.0000e-12     3.2200e-12     3.4400e-12     3.6500e-12     3.8800e-12     4.1000e-12     4.3300e-12     4.5500e-12     4.7800e-12     5.0100e-12     5.2400e-12     5.4800e-12     5.7100e-12
    3     12      3.2700e-43     4.7400e-28     1.9200e-20     7.0800e-18     1.4500e-16     9.4000e-16     3.4400e-15     9.0400e-15     1.9300e-14     3.5900e-14     6.0300e-14     9.3900e-14     1.3800e-13     1.9300e-13     2.6100e-13     3.4200e-13     4.3600e-13     5.4400e-13     6.6500e-13     8.0000e-13     9.4800e-13     1.1100e-12     1.2800e-12     1.4700e-12     1.6700e-12     1.8800e-12     2.1000e-12     2.3300e-12     2.5700e-12     2.8200e-12     3.0800e-12     3.3500e-12     3.6200e-12     3.9000e-12     4.1900e-12     4.4900e-12     4.7900e-12     5.1000e-12     5.4100e-12     5.7300e-12     6.0500e-12
    3     13          0.0000     3.5700e-31     4.7800e-22     5.3300e-19     1.8600e-17     1.6400e-16     7.2500e-16     2.1700e-15     5.0600e-15     1.0000e-14     1.7600e-14     2.8500e-14     4.3100e-14     6.1800e-14     8.5100e-14     1.1300e-13     1.4700e-13     1.8500e-13     2.2900e-13     2.7900e-13     3.3400e-13     3.9500e-13     4.6100e-13     5.3300e-13     6.1000e-13     6.9300e-13     7.8000e-13     8.7300e-13     9.7100e-13     1.0700e-12     1.1800e-12     1.2900e-12     1.4100e-12     1.5300e-12     1.6500e-12     1.7800e-12     1.9100e-12     2.0400e-12     2.1800e-12     2.3100e-12     2.4600e-12
    3     14          0.0000     8.8400e-35     5.0500e-24     1.9800e-20     1.3100e-18     1.7100e-17     9.9400e-17     3.6600e-16     1.0100e-15     2.2900e-15     4.5400e-15     8.1300e-15     1.3500e-14     2.1000e-14     3.1100e-14     4.4200e-14     6.0700e-14     8.1000e-14     1.0500e-13     1.3400e-13     1.6800e-13     2.0600e-13     2.5000e-13     2.9800e-13     3.5200e-13     4.1100e-13     4.7600e-13     5.4600e-13     6.2100e-13     7.0200e-13     7.8700e-13     8.7800e-13     9.7400e-13     1.0700e-12     1.1800e-12     1.2900e-12     1.4000e-12     1.5200e-12     1.6500e-12     1.7700e-12     1.9000e-12
    3     15          0.0000     3.1900e-38     7.8100e-26     1.0700e-21     1.3200e-19     2.4900e-18     1.8500e-17     8.0700e-17     2.5200e-16     6.2900e-16     1.3400e-15     2.5400e-15     4.4000e-15     7.1100e-15     1.0900e-14     1.5900e-14     2.2400e-14     3.0500e-14     4.0500e-14     5.2500e-14     6.6600e-14     8.3200e-14     1.0200e-13     1.2400e-13     1.4800e-13     1.7500e-13     2.0500e-13     2.3800e-13     2.7400e-13     3.1300e-13     3.5400e-13     3.9900e-13     4.4700e-13     4.9800e-13     5.5200e-13     6.0900e-13     6.6800e-13     7.3100e-13     7.9600e-13     8.6300e-13     9.3300e-13
    3     16          0.0000     4.9900e-42     5.9600e-28     3.1000e-23     7.5500e-21     2.1700e-19     2.1500e-18     1.1600e-17     4.3000e-17     1.2300e-16     2.9400e-16     6.1600e-16     1.1700e-15     2.0400e-15     3.3500e-15     5.2100e-15     7.7700e-15     1.1200e-14     1.5500e-14     2.1000e-14     2.7800e-14     3.6000e-14     4.5800e-14     5.7300e-14     7.0600e-14     8.5800e-14     1.0300e-13     1.2200e-13     1.4400e-13     1.6800e-13     1.9400e-13     2.2300e-13     2.5400e-13     2.8700e-13     3.2300e-13     3.6100e-13     4.0200e-13     4.4500e-13     4.9000e-13     5.3800e-13     5.8800e-13
    3     17          0.0000         0.0000     3.5500e-30     9.0300e-25     4.8300e-22     2.2200e-20     3.0200e-19     2.0400e-18     8.8900e-18     2.8900e-17     7.6500e-17     1.7400e-16     3.5200e-16     6.5100e-16     1.1200e-15     1.8200e-15     2.8100e-15     4.1600e-15     5.9600e-15     8.2900e-15     1.1200e-14     1.4900e-14     1.9300e-14     2.4600e-14     3.0800e-14     3.8100e-14     4.6500e-14     5.6200e-14     6.7100e-14     7.9300e-14     9.3000e-14     1.0800e-13     1.2500e-13     1.4300e-13     1.6300e-13     1.8400e-13     2.0700e-13     2.3200e-13     2.5800e-13     2.8600e-13     3.1500e-13
    3     18          0.0000         0.0000     1.7800e-32     1.9600e-26     2.2200e-23     1.6200e-21     3.0000e-20     2.5600e-19     1.3300e-18     5.0200e-18     1.5000e-17     3.7900e-17     8.4000e-17     1.6800e-16     3.1200e-16     5.4000e-16     8.8500e-16     1.3900e-15     2.0900e-15     3.0300e-15     4.2900e-15     5.9000e-15     7.9400e-15     1.0500e-14     1.3500e-14     1.7200e-14     2.1600e-14     2.6800e-14     3.2700e-14     3.9600e-14     4.7400e-14     5.6100e-14     6.6000e-14     7.6900e-14     8.9000e-14     1.0200e-13     1.1700e-13     1.3200e-13     1.4900e-13     1.6600e-13     1.8500e-13
    3     19          0.0000         0.0000     6.6000e-35     3.9300e-28     1.0400e-24     1.2700e-22     3.3300e-21     3.6500e-20     2.3000e-19     1.0100e-18     3.4000e-18     9.4600e-18     2.2800e-17     4.8900e-17     9.6100e-17     1.7500e-16     3.0000e-16     4.8800e-16     7.6000e-16     1.1400e-15     1.6500e-15     2.3300e-15     3.2100e-15     4.3100e-15     5.6800e-15     7.3600e-15     9.3700e-15     1.1800e-14     1.4600e-14     1.7800e-14     2.1600e-14     2.5900e-14     3.0700e-14     3.6100e-14     4.2200e-14     4.8800e-14     5.6100e-14     6.3900e-14     7.2400e-14     8.1400e-14     9.0900e-14
    3     20          0.0000         0.0000     1.4700e-37     5.2400e-30     3.3000e-26     6.7300e-24     2.5000e-22     3.5100e-21     2.6900e-20     1.3700e-19     5.2800e-19     1.6400e-18     4.3700e-18     1.0200e-17     2.1800e-17     4.2600e-17     7.8000e-17     1.3500e-16     2.2300e-16     3.5200e-16     5.3700e-16     7.9300e-16     1.1400e-15     1.6000e-15     2.1900e-15     2.9400e-15     3.8800e-15     5.0400e-15     6.4500e-15     8.1400e-15     1.0100e-14     1.2500e-14     1.5200e-14     1.8400e-14     2.1900e-14     2.5900e-14     3.0300e-14     3.5200e-14     4.0500e-14     4.6200e-14     5.2300e-14
    3     21          0.0000         0.0000     2.0700e-40     5.6000e-32     9.8700e-28     3.7800e-25     2.1500e-23     4.1400e-22     4.0400e-21     2.5000e-20     1.1300e-19     4.0100e-19     1.2000e-18     3.1000e-18     7.1900e-18     1.5200e-17     3.0000e-17     5.5300e-17     9.6700e-17     1.6200e-16     2.5900e-16     4.0200e-16     6.0400e-16     8.8300e-16     1.2600e-15     1.7600e-15     2.4000e-15     3.2300e-15     4.2700e-15     5.5600e-15     7.1300e-15     9.0400e-15     1.1300e-14     1.4000e-14     1.7100e-14     2.0700e-14     2.4700e-14     2.9300e-14     3.4400e-14     4.0000e-14     4.6200e-14
    4      1      1.0800e-11     1.0500e-11     1.0400e-11     1.0400e-11     1.0500e-11     1.0700e-11     1.1000e-11     1.1400e-11     1.1700e-11     1.2200e-11     1.2600e-11     1.2800e-11     1.3300e-11     1.3700e-11     1.4100e-11     1.4400e-11     1.4600e-11     1.5000e-11     1.5300e-11     1.5500e-11     1.5800e-11     1.6000e-11     1.6200e-11     1.6500e-11     1.6700e-11     1.6900e-11     1.7100e-11     1.7300e-11     1.7500e-11     1.7600e-11     1.7700e-11     1.7900e-11     1.8000e-11     1.8100e-11     1.8200e-11     1.8400e-11     1.8500e-11     1.8600e-11     1.8700e-11     1.8800e-11     1.8900e-11
    4      2      8.0800e-11     8.4200e-11     8.7400e-11     8.7800e-11     8.7500e-11     8.6400e-11     8.6600e-11     8.5800e-11     8.5800e-11     8.5500e-11     8.4900e-11     8.4200e-11     8.4200e-11     8.4300e-11     8.4400e-11     8.4300e-11     8.4500e-11     8.4500e-11     8.4100e-11     8.3600e-11     8.4000e-11     8.4200e-11     8.3800e-11     8.3700e-11     8.4100e-11     8.4400e-11     8.4500e-11     8.4600e-11     8.4600e-11     8.4800e-11     8.5000e-11     8.5100e-11     8.5100e-11     8.5100e-11     8.5200e-11     8.5400e-11     8.5600e-11     8.5700e-11     8.5800e-11     8.6100e-11     8.6300e-11
    4      3      8.4900e-11     8.0100e-11     7.6700e-11     7.4600e-11     7.3200e-11     7.3000e-11     7.2700e-11     7.3200e-11     7.4900e-11     7.6600e-11     7.7000e-11     7.6100e-11     7.7700e-11     7.9100e-11     8.0100e-11     8.0700e-11     8.1200e-11     8.2300e-11     8.3200e-11     8.4100e-11     8.4700e-11     8.5000e-11     8.5500e-11     8.6300e-11     8.7100e-11     8.7800e-11     8.8500e-11     8.9200e-11     8.9800e-11     9.0300e-11     9.0300e-11     9.0300e-11     9.0500e-11     9.0900e-11     9.1500e-11     9.2000e-11     9.2600e-11     9.3100e-11     9.3600e-11     9.4100e-11     9.4400e-11
    4      4      7.4500e-10     7.7200e-10     9.3100e-10     1.1300e-09     1.3200e-09     1.4900e-09     1.6400e-09     1.7700e-09     1.8800e-09     1.9700e-09     2.0500e-09     2.1300e-09     2.1900e-09     2.2500e-09     2.3000e-09     2.3400e-09     2.3800e-09     2.4200e-09     2.4500e-09     2.4800e-09     2.5000e-09     2.5300e-09     2.5500e-09     2.5700e-09     2.5900e-09     2.6000e-09     2.6200e-09     2.6300e-09     2.6500e-09     2.6600e-09     2.6600e-09     2.6700e-09     2.6800e-09     2.6900e-09     2.7000e-09     2.7100e-09     2.7100e-09     2.7200e-09     2.7300e-09     2.7300e-09     2.7400e-09
    4      5      1.3000e-12     1.1600e-11     3.3700e-11     4.7300e-11     5.5700e-11     6.2100e-11     6.6100e-11     7.1000e-11     7.5000e-11     7.6700e-11     7.8800e-11     8.1400e-11     8.4400e-11     8.6100e-11     8.9100e-11     9.1100e-11     9.2300e-11     9.3700e-11     9.4700e-11     9.5800e-11     9.7600e-11     9.9000e-11     1.0100e-10     1.0200e-10     1.0400e-10     1.0500e-10     1.0500e-10     1.0600e-10     1.0800e-10     1.0900e-10     1.0900e-10     1.1000e-10     1.1100e-10     1.1200e-10     1.1300e-10     1.1400e-10     1.1400e-10     1.1500e-10     1.1600e-10     1.1600e-10     1.1700e-10
    4      6      6.1000e-15     9.7000e-13     1.2100e-11     2.7600e-11     4.1300e-11     5.2000e-11     6.1300e-11     6.7900e-11     7.3900e-11     7.9900e-11     8.3800e-11     8.6700e-11     9.0500e-11     9.3300e-11     9.6900e-11     9.9100e-11     1.0100e-10     1.0400e-10     1.0600e-10     1.0700e-10     1.0900e-10     1.1000e-10     1.1200e-10     1.1300e-10     1.1500e-10     1.1600e-10     1.1700e-10     1.1900e-10     1.2000e-10     1.2200e-10     1.2300e-10     1.2400e-10     1.2500e-10     1.2500e-10     1.2600e-10     1.2700e-10     1.2800e-10     1.2900e-10     1.3000e-10     1.3100e-10     1.3200e-10
    4      7      1.8600e-18     9.1400e-15     6.5300e-13     2.7300e-12     5.6500e-12     8.8800e-12     1.2200e-11     1.5400e-11     1.8500e-11     2.1600e-11     2.4500e-11     2.7200e-11     3.0000e-11     3.2600e-11     3.5300e-11     3.7800e-11     4.0000e-11     4.2300e-11     4.4400e-11     4.6600e-11     4.8600e-11     5.0600e-11     5.2300e-11     5.4300e-11     5.6100e-11     5.7800e-11     5.9500e-11     6.1100e-11     6.2800e-11     6.4300e-11     6.5700e-11     6.7100e-11     6.8500e-11     6.9900e-11     7.1200e-11     7.2500e-11     7.3700e-11     7.5000e-11     7.6200e-11     7.7300e-11     7.8500e-11
    4      8      7.8100e-22     1.6200e-16     7.2800e-14     5.5200e-13     1.5200e-12     2.7800e-12     4.1800e-12     5.6000e-12     7.0000e-12     8.3100e-12     9.5500e-12     1.0800e-11     1.1900e-11     1.2900e-11     1.4000e-11     1.5000e-11     1.5900e-11     1.6700e-11     1.7500e-11     1.8400e-11     1.9100e-11     1.9900e-11     2.0600e-11     2.1400e-11     2.2000e-11     2.2600e-11     2.3400e-11     2.4100e-11     2.4700e-11     2.5400e-11     2.6000e-11     2.6600e-11     2.7200e-11     2.7700e-11     2.8300e-11     2.8900e-11     2.9400e-11     3.0000e-11     3.0600e-11     3.1100e-11     3.1700e-11
    4      9      4.3800e-26     7.4400e-19     3.3200e-15     5.7100e-14     2.4400e-13     6.0300e-13     1.1300e-12     1.8000e-12     2.6000e-12     3.4900e-12     4.4800e-12     5.5200e-12     6.6400e-12     7.8000e-12     9.0100e-12     1.0200e-11     1.1500e-11     1.2700e-11     1.4000e-11     1.5200e-11     1.6500e-11     1.7800e-11     1.9000e-11     2.0300e-11     2.1600e-11     2.2800e-11     2.4000e-11     2.5200e-11     2.6400e-11     2.7600e-11     2.8800e-11     3.0000e-11     3.1100e-11     3.2300e-11     3.3400e-11     3.4500e-11     3.5500e-11     3.6600e-11     3.7700e-11     3.8700e-11     3.9700e-11
    4     10      1.4200e-30     3.2400e-21     1.5600e-16     5.7600e-15     3.5600e-14     1.0800e-13     2.2900e-13     3.9500e-13     6.0100e-13     8.3800e-13     1.1000e-12     1.3800e-12     1.6800e-12     1.9900e-12     2.3000e-12     2.6300e-12     2.9500e-12     3.2700e-12     3.6000e-12     3.9300e-12     4.2600e-12     4.5900e-12     4.9200e-12     5.2400e-12     5.5700e-12     5.9000e-12     6.2200e-12     6.5500e-12     6.8600e-12     7.1800e-12     7.4900e-12     7.8100e-12     8.1200e-12     8.4400e-12     8.7500e-12     9.0600e-12     9.3700e-12     9.6900e-12     9.9900e-12     1.0300e-11     1.0600e-11
    4     11      7.4300e-36     4.8800e-24     4.1200e-18     4.1500e-16     4.3900e-15     1.8900e-14     5.2000e-14     1.1000e-13     1.9900e-13     3.2000e-13     4.7600e-13     6.6800e-13     8.9400e-13     1.1500e-12     1.4500e-12     1.7700e-12     2.1200e-12     2.5000e-12     2.9100e-12     3.3400e-12     3.7800e-12     4.2500e-12     4.7400e-12     5.2400e-12     5.7500e-12     6.2800e-12     6.8200e-12     7.3700e-12     7.9200e-12     8.4900e-12     9.0600e-12     9.6300e-12     1.0200e-11     1.0800e-11     1.1400e-11     1.2000e-11     1.2600e-11     1.3200e-11     1.3800e-11     1.4400e-11     1.5000e-11
    4     12      2.6600e-41     6.9900e-27     1.1500e-19     3.0300e-17     5.1000e-16     2.8600e-15     9.2800e-15     2.2000e-14     4.2700e-14     7.2600e-14     1.1300e-13     1.6300e-13     2.2300e-13     2.9400e-13     3.7500e-13     4.6500e-13     5.6400e-13     6.7200e-13     7.8700e-13     9.1100e-13     1.0400e-12     1.1800e-12     1.3200e-12     1.4700e-12     1.6300e-12     1.7900e-12     1.9500e-12     2.1200e-12     2.2900e-12     2.4600e-12     2.6400e-12     2.8200e-12     3.0100e-12     3.2000e-12     3.3800e-12     3.5700e-12     3.7700e-12     3.9600e-12     4.1500e-12     4.3500e-12     4.5500e-12
    4     13          0.0000     2.8100e-30     1.6800e-21     1.4500e-18     4.4900e-17     3.7100e-16     1.5800e-15     4.6500e-15     1.0700e-14     2.1200e-14     3.7200e-14     6.0000e-14     9.0800e-14     1.3000e-13     1.7900e-13     2.3900e-13     3.0900e-13     3.9000e-13     4.8200e-13     5.8500e-13     6.9900e-13     8.2300e-13     9.5900e-13     1.1000e-12     1.2600e-12     1.4300e-12     1.6000e-12     1.7800e-12     1.9800e-12     2.1800e-12     2.3900e-12     2.6000e-12     2.8200e-12     3.0500e-12     3.2900e-12     3.5300e-12     3.7700e-12     4.0300e-12     4.2800e-12     4.5400e-12     4.8100e-12
    4     14          0.0000     1.1000e-33     2.7100e-23     7.9300e-20     4.4600e-18     5.2000e-17     2.7700e-16     9.4200e-16     2.4200e-15     5.1600e-15     9.6100e-15     1.6300e-14     2.5500e-14     3.7800e-14     5.3400e-14     7.2800e-14     9.6000e-14     1.2300e-13     1.5500e-13     1.9100e-13     2.3200e-13     2.7700e-13     3.2700e-13     3.8100e-13     4.4000e-13     5.0300e-13     5.7100e-13     6.4300e-13     7.1900e-13     7.9900e-13     8.8400e-13     9.7200e-13     1.0600e-12     1.1600e-12     1.2600e-12     1.3600e-12     1.4700e-12     1.5700e-12     1.6800e-12     1.8000e-12     1.9100e-12
    4     15          0.0000     2.5600e-37     2.7500e-25     2.8600e-21     3.0700e-19     5.3400e-18     3.7700e-17     1.5900e-16     4.8300e-16     1.1900e-15     2.4900e-15     4.6800e-15     8.0500e-15     1.2900e-14     1.9700e-14     2.8600e-14     4.0100e-14     5.4500e-14     7.1900e-14     9.2800e-14     1.1700e-13     1.4600e-13     1.7800e-13     2.1400e-13     2.5500e-13     3.0000e-13     3.4900e-13     4.0200e-13     4.6000e-13     5.2300e-13     5.8900e-13     6.6000e-13     7.3500e-13     8.1500e-13     8.9800e-13     9.8500e-13     1.0800e-12     1.1700e-12     1.2700e-12     1.3700e-12     1.4800e-12
    4     16          0.0000     6.2400e-41     3.1900e-27     1.2400e-22     2.5700e-20     6.6800e-19     6.1200e-18     3.1000e-17     1.0800e-16     2.9300e-16     6.6700e-16     1.3300e-15     2.4200e-15     4.0600e-15     6.4000e-15     9.6100e-15     1.3800e-14     1.9200e-14     2.6000e-14     3.4200e-14     4.4100e-14     5.5700e-14     6.9200e-14     8.4700e-14     1.0200e-13     1.2200e-13     1.4400e-13     1.6800e-13     1.9500e-13     2.2400e-13     2.5500e-13     2.8900e-13     3.2600e-13     3.6400e-13     4.0600e-13     4.4900e-13     4.9500e-13     5.4300e-13     5.9400e-13     6.4600e-13     7.0000e-13
    4     17          0.0000     1.4000e-45     1.3900e-29     2.6600e-24     1.2200e-21     5.1200e-20     6.5000e-19     4.1700e-18     1.7500e-17     5.5100e-17     1.4200e-16     3.1600e-16     6.2900e-16     1.1400e-15     1.9400e-15     3.1100e-15     4.7500e-15     6.9800e-15     9.8900e-15     1.3600e-14     1.8300e-14     2.4000e-14     3.0900e-14     3.9000e-14     4.8500e-14     5.9500e-14     7.2100e-14     8.6300e-14     1.0200e-13     1.2000e-13     1.4000e-13     1.6100e-13     1.8500e-13     2.1000e-13     2.3700e-13     2.6700e-13     2.9800e-13     3.3200e-13     3.6700e-13     4.0400e-13     4.4200e-13
    4     18          0.0000         0.0000     9.8100e-32     8.0300e-26     7.7700e-23     5.1100e-21     8.7800e-20     7.0100e-19     3.4700e-18     1.2400e-17     3.5500e-17     8.5900e-17     1.8300e-16     3.5400e-16     6.3300e-16     1.0600e-15     1.6800e-15     2.5600e-15     3.7500e-15     5.3200e-15     7.3300e-15     9.8500e-15     1.3000e-14     1.6700e-14     2.1300e-14     2.6600e-14     3.2800e-14     3.9900e-14     4.8100e-14     5.7300e-14     6.7700e-14     7.9200e-14     9.2000e-14     1.0600e-13     1.2100e-13     1.3800e-13     1.5600e-13     1.7500e-13     1.9600e-13     2.1700e-13     2.4000e-13
    4     19          0.0000         0.0000     2.9600e-34     1.3200e-27     2.9900e-24     3.2800e-22     8.0000e-21     8.2400e-20     4.9600e-19     2.0800e-18     6.7700e-18     1.8300e-17     4.2900e-17     8.9900e-17     1.7300e-16     3.0800e-16     5.1900e-16     8.3000e-16     1.2700e-15     1.8800e-15     2.6900e-15     3.7500e-15     5.0900e-15     6.7700e-15     8.8300e-15     1.1300e-14     1.4300e-14     1.7700e-14     2.1800e-14     2.6400e-14     3.1700e-14     3.7700e-14     4.4500e-14     5.1900e-14     6.0200e-14     6.9300e-14     7.9100e-14     8.9700e-14     1.0100e-13     1.1300e-13     1.2600e-13
    4     20          0.0000         0.0000     8.2000e-37     2.1800e-29     1.1800e-25     2.1700e-23     7.4600e-22     9.8300e-21     7.1400e-20     3.4800e-19     1.2800e-18     3.8200e-18     9.7800e-18     2.2100e-17     4.5500e-17     8.6400e-17     1.5400e-16     2.5800e-16     4.1500e-16     6.4100e-16     9.5500e-16     1.3800e-15     1.9400e-15     2.6700e-15     3.5900e-15     4.7500e-15     6.1600e-15     7.8800e-15     9.9300e-15     1.2400e-14     1.5200e-14     1.8500e-14     2.2200e-14     2.6500e-14     3.1300e-14     3.6700e-14     4.2600e-14     4.9000e-14     5.6000e-14     6.3500e-14     7.1400e-14
    4     21          0.0000         0.0000     9.5200e-40     1.9300e-31     2.9400e-27     1.0200e-24     5.4400e-23     9.9100e-22     9.2500e-21     5.5200e-20     2.4000e-19     8.3100e-19     2.4100e-18     6.1000e-18     1.3800e-17     2.8700e-17     5.5300e-17     1.0000e-16     1.7200e-16     2.8300e-16     4.4600e-16     6.8100e-16     1.0100e-15     1.4500e-15     2.0400e-15     2.8200e-15     3.8000e-15     5.0500e-15     6.5900e-15     8.4800e-15     1.0800e-14     1.3500e-14     1.6700e-14     2.0400e-14     2.4700e-14     2.9600e-14     3.5100e-14     4.1200e-14     4.7900e-14     5.5300e-14     6.3200e-14
    5      1      7.9900e-12     8.3100e-12     8.3000e-12     8.1700e-12     8.0500e-12     7.9400e-12     7.9000e-12     7.8800e-12     7.8600e-12     7.8700e-12     7.7900e-12     7.7400e-12     7.7600e-12     7.8100e-12     7.8800e-12     7.8900e-12     7.8900e-12     7.9000e-12     7.9200e-12     7.9500e-12     7.9300e-12     7.9600e-12     7.9800e-12     8.0200e-12     8.0600e-12     8.1000e-12     8.1500e-12     8.2100e-12     8.2700e-12     8.3000e-12     8.3300e-12     8.3700e-12     8.4100e-12     8.4400e-12     8.4900e-12     8.5500e-12     8.6100e-12     8.6700e-12     8.7200e-12     8.7700e-12     8.8100e-12
    5      2      1.5300e-11     1.5900e-11     1.6500e-11     1.6900e-11     1.7500e-11     1.8200e-11     1.8900e-11     1.9900e-11     2.0900e-11     2.1900e-11     2.2500e-11     2.3500e-11     2.4600e-11     2.5500e-11     2.6500e-11     2.7200e-11     2.8000e-11     2.8800e-11     2.9500e-11     3.0200e-11     3.0900e-11     3.1500e-11     3.2200e-11     3.2900e-11     3.3500e-11     3.4000e-11     3.4600e-11     3.5100e-11     3.5600e-11     3.6000e-11     3.6400e-11     3.6900e-11     3.7300e-11     3.7800e-11     3.8200e-11     3.8600e-11     3.9000e-11     3.9300e-11     3.9700e-11     4.0000e-11     4.0300e-11
    5      3      8.0700e-11     8.6200e-11     8.9300e-11     8.9300e-11     8.8600e-11     8.7200e-11     8.7700e-11     8.7100e-11     8.6800e-11     8.7400e-11     8.6700e-11     8.6100e-11     8.6200e-11     8.6700e-11     8.7500e-11     8.7500e-11     8.7400e-11     8.7400e-11     8.7700e-11     8.8000e-11     8.7800e-11     8.8000e-11     8.8000e-11     8.8200e-11     8.8400e-11     8.8700e-11     8.9200e-11     8.9700e-11     9.0100e-11     9.0300e-11     9.0400e-11     9.0500e-11     9.0600e-11     9.0600e-11     9.0800e-11     9.1100e-11     9.1400e-11     9.1800e-11     9.2100e-11     9.2300e-11     9.2600e-11
    5      4      8.4500e-11     8.2700e-11     7.9300e-11     7.6900e-11     7.5300e-11     7.5200e-11     7.4400e-11     7.5700e-11     7.7000e-11     7.6200e-11     7.6400e-11     7.7500e-11     7.8900e-11     7.9400e-11     8.1200e-11     8.2100e-11     8.2400e-11     8.3000e-11     8.3300e-11     8.3700e-11     8.4800e-11     8.5600e-11     8.6600e-11     8.7700e-11     8.8300e-11     8.8800e-11     8.9300e-11     8.9900e-11     9.0600e-11     9.1100e-11     9.1600e-11     9.2000e-11     9.2500e-11     9.3000e-11     9.3700e-11     9.4300e-11     9.4500e-11     9.4900e-11     9.5300e-11     9.5800e-11     9.6400e-11
    5      5      6.9800e-10     7.2800e-10     9.0300e-10     1.1200e-09     1.3200e-09     1.4900e-09     1.6400e-09     1.7700e-09     1.8800e-09     1.9800e-09     2.0700e-09     2.1300e-09     2.2000e-09     2.2600e-09     2.3100e-09     2.3500e-09     2.3900e-09     2.4200e-09     2.4500e-09     2.4800e-09     2.5100e-09     2.5400e-09     2.5500e-09     2.5700e-09     2.5900e-09     2.6100e-09     2.6200e-09     2.6400e-09     2.6500e-09     2.6600e-09     2.6700e-09     2.6800e-09     2.6900e-09     2.7000e-09     2.7100e-09     2.7100e-09     2.7200e-09     2.7200e-09     2.7300e-09     2.7400e-09     2.7400e-09
    5      6      4.1900e-13     6.7000e-12     2.5600e-11     3.9100e-11     4.8100e-11     5.4400e-11     5.9700e-11     6.4100e-11     6.7300e-11     7.0100e-11     7.2800e-11     7.5300e-11     7.8100e-11     8.0600e-11     8.2200e-11     8.3700e-11     8.5100e-11     8.6600e-11     8.8200e-11     8.9600e-11     9.1200e-11     9.2600e-11     9.3700e-11     9.5000e-11     9.6200e-11     9.7400e-11     9.8400e-11     9.9400e-11     1.0000e-10     1.0100e-10     1.0200e-10     1.0300e-10     1.0400e-10     1.0400e-10     1.0500e-10     1.0600e-10     1.0700e-10     1.0800e-10     1.0800e-10     1.0900e-10     1.1000e-10
    5      7      6.1500e-16     2.9800e-13     6.5100e-12     1.7800e-11     2.9200e-11     3.9000e-11     4.7200e-11     5.4100e-11     5.9800e-11     6.4700e-11     6.9100e-11     7.2300e-11     7.6100e-11     7.9200e-11     8.2400e-11     8.4700e-11     8.6800e-11     8.8900e-11     9.0900e-11     9.3000e-11     9.4800e-11     9.6600e-11     9.7800e-11     9.9500e-11     1.0100e-10     1.0200e-10     1.0400e-10     1.0500e-10     1.0700e-10     1.0800e-10     1.0900e-10     1.1000e-10     1.1100e-10     1.1200e-10     1.1300e-10     1.1400e-10     1.1500e-10     1.1600e-10     1.1700e-10     1.1800e-10     1.1900e-10
    5      8      6.6800e-20     1.7400e-15     2.9300e-13     1.6200e-12     3.8700e-12     6.5800e-12     9.4800e-12     1.2400e-11     1.5300e-11     1.8100e-11     2.0800e-11     2.3500e-11     2.6200e-11     2.8600e-11     3.0900e-11     3.3200e-11     3.5400e-11     3.7600e-11     3.9600e-11     4.1600e-11     4.3400e-11     4.5400e-11     4.7000e-11     4.8700e-11     5.0400e-11     5.2000e-11     5.3600e-11     5.5100e-11     5.6500e-11     5.7900e-11     5.9300e-11     6.0600e-11     6.1900e-11     6.3100e-11     6.4300e-11     6.5500e-11     6.6700e-11     6.7800e-11     6.9000e-11     7.0000e-11     7.1100e-11
    5      9      1.0600e-23     1.8200e-17     2.3600e-14     2.5400e-13     8.3200e-13     1.6900e-12     2.7200e-12     3.8300e-12     4.9600e-12     6.0600e-12     7.1500e-12     8.1500e-12     9.1700e-12     1.0100e-11     1.1000e-11     1.1900e-11     1.2700e-11     1.3500e-11     1.4300e-11     1.5000e-11     1.5800e-11     1.6500e-11     1.7100e-11     1.7800e-11     1.8500e-11     1.9100e-11     1.9700e-11     2.0300e-11     2.0900e-11     2.1500e-11     2.2100e-11     2.2700e-11     2.3300e-11     2.3800e-11     2.4400e-11     2.4900e-11     2.5500e-11     2.6000e-11     2.6500e-11     2.7000e-11     2.7500e-11
    5     10      2.0800e-28     5.4100e-20     9.2500e-16     2.4800e-14     1.3200e-13     3.7000e-13     7.5200e-13     1.2700e-12     1.9100e-12     2.6500e-12     3.4700e-12     4.3700e-12     5.3300e-12     6.3300e-12     7.3700e-12     8.4500e-12     9.5500e-12     1.0600e-11     1.1800e-11     1.2900e-11     1.4000e-11     1.5100e-11     1.6300e-11     1.7400e-11     1.8500e-11     1.9600e-11     2.0700e-11     2.1800e-11     2.2900e-11     2.3900e-11     2.5000e-11     2.6000e-11     2.7100e-11     2.8100e-11     2.9100e-11     3.0100e-11     3.1100e-11     3.2100e-11     3.3000e-11     3.4000e-11     3.4900e-11
    5     11      1.6200e-33     1.1200e-22     2.8800e-17     1.8500e-15     1.5000e-14     5.3500e-14     1.2600e-13     2.3500e-13     3.7800e-13     5.5100e-13     7.4800e-13     9.6600e-13     1.2000e-12     1.4500e-12     1.7000e-12     1.9700e-12     2.2300e-12     2.5100e-12     2.7800e-12     3.0600e-12     3.3400e-12     3.6300e-12     3.9100e-12     4.1900e-12     4.4800e-12     4.7600e-12     5.0400e-12     5.3300e-12     5.6100e-12     5.8900e-12     6.1700e-12     6.4400e-12     6.7200e-12     7.0000e-12     7.2700e-12     7.5500e-12     7.8200e-12     8.1000e-12     8.3800e-12     8.6500e-12     8.9300e-12
    5     12      4.2100e-39     1.2300e-25     6.9400e-19     1.3100e-16     1.8800e-15     9.6900e-15     2.9900e-14     6.8700e-14     1.3100e-13     2.2000e-13     3.3900e-13     4.8700e-13     6.6600e-13     8.7500e-13     1.1100e-12     1.3800e-12     1.6700e-12     1.9900e-12     2.3300e-12     2.6900e-12     3.0700e-12     3.4600e-12     3.8800e-12     4.3100e-12     4.7500e-12     5.2000e-12     5.6700e-12     6.1400e-12     6.6200e-12     7.1100e-12     7.6100e-12     8.1100e-12     8.6200e-12     9.1300e-12     9.6400e-12     1.0200e-11     1.0700e-11     1.1200e-11     1.1700e-11     1.2300e-11     1.2800e-11
    5     13      1.4000e-45     6.3700e-29     1.2100e-20     6.8900e-18     1.6800e-16     1.1800e-15     4.4100e-15     1.1600e-14     2.4200e-14     4.3600e-14     7.0700e-14     1.0600e-13     1.5000e-13     2.0200e-13     2.6300e-13     3.3200e-13     4.1000e-13     4.9500e-13     5.8700e-13     6.8600e-13     7.9200e-13     9.0400e-13     1.0200e-12     1.1400e-12     1.2700e-12     1.4100e-12     1.5400e-12     1.6800e-12     1.8300e-12     1.9800e-12     2.1300e-12     2.2800e-12     2.4400e-12     2.6000e-12     2.7600e-12     2.9200e-12     3.0900e-12     3.2600e-12     3.4200e-12     3.5900e-12     3.7600e-12
    5     14          0.0000     1.7600e-32     1.4500e-22     2.9700e-19     1.4100e-17     1.5000e-16     7.5400e-16     2.4700e-15     6.2000e-15     1.3000e-14     2.3900e-14     4.0000e-14     6.2400e-14     9.1800e-14     1.2900e-13     1.7500e-13     2.2900e-13     2.9300e-13     3.6500e-13     4.4800e-13     5.4000e-13     6.4100e-13     7.5200e-13     8.7100e-13     1.0000e-12     1.1400e-12     1.2800e-12     1.4300e-12     1.6000e-12     1.7600e-12     1.9400e-12     2.1200e-12     2.3100e-12     2.5000e-12     2.7000e-12     2.9100e-12     3.1200e-12     3.3300e-12     3.5500e-12     3.7700e-12     4.0000e-12
    5     15          0.0000     5.5600e-36     1.9400e-24     1.3700e-20     1.1900e-18     1.8000e-17     1.1400e-16     4.3800e-16     1.2300e-15     2.8100e-15     5.5400e-15     9.8100e-15     1.6000e-14     2.4400e-14     3.5400e-14     4.9300e-14     6.6400e-14     8.6700e-14     1.1100e-13     1.3800e-13     1.7000e-13     2.0500e-13     2.4400e-13     2.8700e-13     3.3400e-13     3.8400e-13     4.3900e-13     4.9700e-13     5.5900e-13     6.2500e-13     6.9400e-13     7.6600e-13     8.4200e-13     9.2100e-13     1.0000e-12     1.0900e-12     1.1800e-12     1.2700e-12     1.3600e-12     1.4500e-12     1.5500e-12
    5     16          0.0000     9.1500e-40     1.5700e-26     4.2700e-22     7.4500e-20     1.7400e-18     1.4900e-17     7.2000e-17     2.4300e-16     6.4300e-16     1.4400e-15     2.8300e-15     5.0600e-15     8.3900e-15     1.3100e-14     1.9500e-14     2.7800e-14     3.8400e-14     5.1400e-14     6.7200e-14     8.5800e-14     1.0800e-13     1.3300e-13     1.6100e-13     1.9300e-13     2.2800e-13     2.6700e-13     3.1000e-13     3.5600e-13     4.0600e-13     4.5900e-13     5.1600e-13     5.7700e-13     6.4100e-13     7.0900e-13     7.8000e-13     8.5500e-13     9.3200e-13     1.0100e-12     1.1000e-12     1.1800e-12
    5     17          0.0000     4.4800e-44     9.7900e-29     1.2800e-23     4.8000e-21     1.7700e-19     2.0300e-18     1.2100e-17     4.7400e-17     1.4100e-16     3.4400e-16     7.2800e-16     1.3800e-15     2.4100e-15     3.9300e-15     6.0700e-15     8.9500e-15     1.2700e-14     1.7500e-14     2.3400e-14     3.0600e-14     3.9200e-14     4.9300e-14     6.1000e-14     7.4400e-14     8.9600e-14     1.0700e-13     1.2600e-13     1.4700e-13     1.7000e-13     1.9500e-13     2.2200e-13     2.5100e-13     2.8300e-13     3.1700e-13     3.5300e-13     3.9100e-13     4.3100e-13     4.7300e-13     5.1600e-13     5.6200e-13
    5     18          0.0000         0.0000     5.1600e-31     2.9200e-25     2.3500e-22     1.3700e-20     2.1800e-19     1.6400e-18     7.7500e-18     2.6800e-17     7.4300e-17     1.7500e-16     3.6600e-16     6.9500e-16     1.2200e-15     2.0200e-15     3.1600e-15     4.7400e-15     6.8600e-15     9.6100e-15     1.3100e-14     1.7400e-14     2.2700e-14     2.9000e-14     3.6500e-14     4.5200e-14     5.5200e-14     6.6600e-14     7.9500e-14     9.3900e-14     1.1000e-13     1.2800e-13     1.4700e-13     1.6800e-13     1.9100e-13     2.1500e-13     2.4200e-13     2.7000e-13     2.9900e-13     3.3000e-13     3.6300e-13
    5     19          0.0000         0.0000     2.1800e-33     6.5700e-27     1.2200e-23     1.1700e-21     2.6000e-20     2.4900e-19     1.4000e-18     5.5700e-18     1.7300e-17     4.4500e-17     1.0000e-16     2.0200e-16     3.7400e-16     6.4500e-16     1.0500e-15     1.6300e-15     2.4400e-15     3.5100e-15     4.9000e-15     6.6600e-15     8.8500e-15     1.1500e-14     1.4700e-14     1.8500e-14     2.2900e-14     2.8100e-14     3.3900e-14     4.0600e-14     4.8000e-14     5.6300e-14     6.5500e-14     7.5600e-14     8.6600e-14     9.8500e-14     1.1100e-13     1.2500e-13     1.4000e-13     1.5500e-13     1.7100e-13
    5     20          0.0000         0.0000     4.8200e-36     8.8200e-29     3.9200e-25     6.3800e-23     2.0100e-21     2.4800e-20     1.7100e-19     7.9800e-19     2.8300e-18     8.1900e-18     2.0400e-17     4.5000e-17     9.0400e-17     1.6800e-16     2.9300e-16     4.8400e-16     7.6500e-16     1.1600e-15     1.7000e-15     2.4300e-15     3.3700e-15     4.5700e-15     6.0700e-15     7.9200e-15     1.0200e-14     1.2800e-14     1.6000e-14     1.9700e-14     2.3900e-14     2.8800e-14     3.4300e-14     4.0500e-14     4.7400e-14     5.5000e-14     6.3300e-14     7.2300e-14     8.2000e-14     9.2300e-14     1.0300e-13
    5     21          0.0000         0.0000     7.2400e-39     1.0000e-30     1.2400e-26     3.7900e-24     1.8300e-22     3.0800e-21     2.6900e-20     1.5200e-19     6.2800e-19     2.0700e-18     5.7700e-18     1.4100e-17     3.0800e-17     6.1800e-17     1.1500e-16     2.0300e-16     3.4000e-16     5.4600e-16     8.4200e-16     1.2600e-15     1.8300e-15     2.5800e-15     3.5700e-15     4.8300e-15     6.4200e-15     8.3900e-15     1.0800e-14     1.3700e-14     1.7200e-14     2.1300e-14     2.6100e-14     3.1600e-14     3.7800e-14     4.4900e-14     5.2700e-14     6.1400e-14     7.0800e-14     8.1000e-14     9.1900e-14
    6      1      1.3500e-12     1.5400e-12     1.7200e-12     1.8700e-12     2.0500e-12     2.2400e-12     2.4600e-12     2.7100e-12     2.9500e-12     3.2000e-12     3.4600e-12     3.7100e-12     3.9700e-12     4.2300e-12     4.5000e-12     4.7400e-12     4.9800e-12     5.2100e-12     5.4300e-12     5.6600e-12     5.8800e-12     6.0900e-12     6.2900e-12     6.4900e-12     6.6800e-12     6.8700e-12     7.0500e-12     7.2300e-12     7.4100e-12     7.5700e-12     7.7300e-12     7.8900e-12     8.0400e-12     8.1800e-12     8.3300e-12     8.4600e-12     8.6000e-12     8.7300e-12     8.8600e-12     8.9800e-12     9.1100e-12
    6      2      1.1800e-11     1.2400e-11     1.2500e-11     1.2500e-11     1.2400e-11     1.2400e-11     1.2400e-11     1.2400e-11     1.2500e-11     1.2700e-11     1.2700e-11     1.2700e-11     1.2800e-11     1.2900e-11     1.3100e-11     1.3100e-11     1.3200e-11     1.3300e-11     1.3400e-11     1.3500e-11     1.3500e-11     1.3600e-11     1.3700e-11     1.3800e-11     1.3900e-11     1.4000e-11     1.4100e-11     1.4300e-11     1.4400e-11     1.4500e-11     1.4600e-11     1.4700e-11     1.4800e-11     1.4900e-11     1.5000e-11     1.5100e-11     1.5200e-11     1.5300e-11     1.5400e-11     1.5500e-11     1.5700e-11
    6      3      1.7300e-11     1.8800e-11     1.9800e-11     2.0300e-11     2.0900e-11     2.1700e-11     2.2600e-11     2.3600e-11     2.4600e-11     2.5600e-11     2.6700e-11     2.7700e-11     2.8700e-11     2.9800e-11     3.0900e-11     3.1800e-11     3.2700e-11     3.3600e-11     3.4500e-11     3.5400e-11     3.6200e-11     3.7100e-11     3.7800e-11     3.8500e-11     3.9300e-11     4.0000e-11     4.0700e-11     4.1400e-11     4.2000e-11     4.2600e-11     4.3200e-11     4.3800e-11     4.4400e-11     4.4900e-11     4.5400e-11     4.5900e-11     4.6400e-11     4.6900e-11     4.7400e-11     4.7800e-11     4.8300e-11
    6      4      8.1900e-11     8.9600e-11     9.3100e-11     9.2300e-11     9.1100e-11     8.9600e-11     8.9500e-11     8.8000e-11     8.7700e-11     8.8400e-11     8.7700e-11     8.6700e-11     8.7200e-11     8.7000e-11     8.8000e-11     8.7900e-11     8.8000e-11     8.8300e-11     8.8800e-11     8.8900e-11     8.8900e-11     8.8900e-11     8.9000e-11     8.9400e-11     8.9800e-11     9.0000e-11     9.0400e-11     9.1100e-11     9.1600e-11     9.1800e-11     9.2100e-11     9.2400e-11     9.2600e-11     9.2800e-11     9.3100e-11     9.3500e-11     9.3900e-11     9.4100e-11     9.4300e-11     9.4600e-11     9.5000e-11
    6      5      8.6600e-11     8.7100e-11     8.3400e-11     8.0400e-11     7.8500e-11     7.7500e-11     7.7400e-11     7.7900e-11     7.7800e-11     7.8000e-11     7.8500e-11     7.9200e-11     8.0500e-11     8.1500e-11     8.2000e-11     8.2300e-11     8.2700e-11     8.3400e-11     8.4100e-11     8.4800e-11     8.5700e-11     8.6400e-11     8.6900e-11     8.7700e-11     8.8300e-11     8.9000e-11     8.9600e-11     9.0100e-11     9.0600e-11     9.1000e-11     9.1500e-11     9.2000e-11     9.2500e-11     9.2900e-11     9.3400e-11     9.3900e-11     9.4400e-11     9.4900e-11     9.5300e-11     9.5800e-11     9.6200e-11
    6      6      7.1300e-10     7.2800e-10     9.0000e-10     1.1200e-09     1.3200e-09     1.4900e-09     1.6500e-09     1.7800e-09     1.8900e-09     1.9900e-09     2.0700e-09     2.1400e-09     2.2100e-09     2.2600e-09     2.3200e-09     2.3600e-09     2.3900e-09     2.4300e-09     2.4600e-09     2.4900e-09     2.5200e-09     2.5400e-09     2.5600e-09     2.5800e-09     2.6000e-09     2.6200e-09     2.6300e-09     2.6400e-09     2.6600e-09     2.6700e-09     2.6800e-09     2.6900e-09     2.6900e-09     2.7000e-09     2.7100e-09     2.7200e-09     2.7300e-09     2.7300e-09     2.7400e-09     2.7400e-09     2.7500e-09
    6      7      1.0000e-13     3.3300e-12     1.8500e-11     3.1800e-11     4.1400e-11     4.8500e-11     5.4100e-11     5.8600e-11     6.2200e-11     6.5900e-11     6.8300e-11     7.1600e-11     7.3000e-11     7.4700e-11     7.7600e-11     7.9800e-11     8.1300e-11     8.3200e-11     8.4500e-11     8.5700e-11     8.6800e-11     8.8300e-11     8.9400e-11     9.0400e-11     9.1200e-11     9.2100e-11     9.3300e-11     9.4500e-11     9.5500e-11     9.6400e-11     9.7200e-11     9.8200e-11     9.9200e-11     1.0000e-10     1.0100e-10     1.0200e-10     1.0200e-10     1.0300e-10     1.0300e-10     1.0400e-10     1.0500e-10
    6      8      6.6300e-17     9.7200e-14     3.6600e-12     1.2000e-11     2.1400e-11     3.0100e-11     3.7700e-11     4.4200e-11     4.9800e-11     5.4500e-11     5.8700e-11     6.2400e-11     6.5600e-11     6.8700e-11     7.2000e-11     7.4500e-11     7.6800e-11     7.8600e-11     8.0600e-11     8.2700e-11     8.4400e-11     8.6300e-11     8.7800e-11     8.9400e-11     9.0900e-11     9.2000e-11     9.3700e-11     9.5200e-11     9.6600e-11     9.8000e-11     9.9100e-11     1.0000e-10     1.0200e-10     1.0200e-10     1.0300e-10     1.0400e-10     1.0500e-10     1.0600e-10     1.0700e-10     1.0800e-10     1.0900e-10
    6      9      3.1500e-21     3.7900e-16     1.3900e-13     1.0100e-12     2.7300e-12     5.0100e-12     7.5700e-12     1.0300e-11     1.3000e-11     1.5600e-11     1.8300e-11     2.0800e-11     2.3200e-11     2.5600e-11     2.8000e-11     3.0100e-11     3.2200e-11     3.4200e-11     3.6100e-11     3.8100e-11     3.9900e-11     4.1600e-11     4.3300e-11     4.5000e-11     4.6600e-11     4.8000e-11     4.9500e-11     5.1000e-11     5.2400e-11     5.3700e-11     5.5000e-11     5.6300e-11     5.7500e-11     5.8700e-11     5.9800e-11     6.0900e-11     6.2000e-11     6.3000e-11     6.4000e-11     6.5100e-11     6.6100e-11
    6     10      1.1900e-25     1.9100e-18     7.5400e-15     1.1700e-13     4.6100e-13     1.0500e-12     1.8000e-12     2.6700e-12     3.5900e-12     4.5100e-12     5.4400e-12     6.3400e-12     7.2000e-12     8.0800e-12     8.9200e-12     9.7100e-12     1.0500e-11     1.1200e-11     1.1900e-11     1.2600e-11     1.3300e-11     1.3900e-11     1.4600e-11     1.5200e-11     1.5800e-11     1.6400e-11     1.7000e-11     1.7600e-11     1.8200e-11     1.8700e-11     1.9300e-11     1.9800e-11     2.0300e-11     2.0900e-11     2.1400e-11     2.1900e-11     2.2400e-11     2.2900e-11     2.3500e-11     2.4000e-11     2.4500e-11
    6     11      8.7900e-31     3.8700e-21     2.5900e-16     1.0900e-14     7.2300e-14     2.3100e-13     5.0900e-13     9.1100e-13     1.4300e-12     2.0500e-12     2.7500e-12     3.5300e-12     4.3700e-12     5.2500e-12     6.1800e-12     7.1400e-12     8.1300e-12     9.1300e-12     1.0100e-11     1.1200e-11     1.2200e-11     1.3200e-11     1.4300e-11     1.5300e-11     1.6300e-11     1.7300e-11     1.8400e-11     1.9400e-11     2.0400e-11     2.1300e-11     2.2300e-11     2.3300e-11     2.4200e-11     2.5200e-11     2.6100e-11     2.7000e-11     2.7900e-11     2.8800e-11     2.9700e-11     3.0600e-11     3.1500e-11
    6     12      2.2100e-36     4.0300e-24     5.4300e-18     6.0500e-16     6.4700e-15     2.7100e-14     7.1100e-14     1.4300e-13     2.4300e-13     3.7000e-13     5.2000e-13     6.9000e-13     8.7700e-13     1.0800e-12     1.2900e-12     1.5100e-12     1.7400e-12     1.9700e-12     2.2100e-12     2.4500e-12     2.7000e-12     2.9500e-12     3.1900e-12     3.4500e-12     3.7000e-12     3.9500e-12     4.2000e-12     4.4500e-12     4.7100e-12     4.9600e-12     5.2100e-12     5.4600e-12     5.7100e-12     5.9700e-12     6.2200e-12     6.4700e-12     6.7200e-12     6.9700e-12     7.2200e-12     7.4700e-12     7.7100e-12
    6     13      6.9400e-43     2.2900e-27     1.1100e-19     4.0700e-17     8.0500e-16     4.9900e-15     1.7300e-14     4.3300e-14     8.7600e-14     1.5400e-13     2.4500e-13     3.6300e-13     5.0700e-13     6.7800e-13     8.7600e-13     1.1000e-12     1.3500e-12     1.6200e-12     1.9100e-12     2.2200e-12     2.5500e-12     2.9000e-12     3.2600e-12     3.6300e-12     4.0200e-12     4.4200e-12     4.8300e-12     5.2500e-12     5.6800e-12     6.1200e-12     6.5600e-12     7.0100e-12     7.4600e-12     7.9200e-12     8.3800e-12     8.8500e-12     9.3200e-12     9.7900e-12     1.0300e-11     1.0700e-11     1.1200e-11
    6     14          0.0000     6.0800e-31     1.2300e-21     1.5300e-18     5.5000e-17     4.8400e-16     2.1100e-15     6.1400e-15     1.3900e-14     2.6600e-14     4.5200e-14     7.0500e-14     1.0300e-13     1.4200e-13     1.9000e-13     2.4400e-13     3.0600e-13     3.7400e-13     4.5000e-13     5.3100e-13     6.1900e-13     7.1300e-13     8.1200e-13     9.1700e-13     1.0300e-12     1.1400e-12     1.2600e-12     1.3800e-12     1.5000e-12     1.6300e-12     1.7600e-12     1.9000e-12     2.0400e-12     2.1800e-12     2.3200e-12     2.4600e-12     2.6100e-12     2.7600e-12     2.9000e-12     3.0500e-12     3.2100e-12
    6     15          0.0000     1.7300e-34     1.5200e-23     6.8500e-20     4.7900e-18     6.3900e-17     3.7400e-16     1.3600e-15     3.6800e-15     8.1800e-15     1.5800e-14     2.7400e-14     4.3900e-14     6.6200e-14     9.4900e-14     1.3100e-13     1.7400e-13     2.2500e-13     2.8500e-13     3.5200e-13     4.2800e-13     5.1300e-13     6.0500e-13     7.0600e-13     8.1500e-13     9.3100e-13     1.0600e-12     1.1900e-12     1.3200e-12     1.4700e-12     1.6200e-12     1.7800e-12     1.9400e-12     2.1100e-12     2.2900e-12     2.4700e-12     2.6500e-12     2.8400e-12     3.0300e-12     3.2300e-12     3.4300e-12
    6     16          0.0000     3.3400e-38     1.4100e-25     2.3500e-21     3.1800e-19     6.2700e-18     4.7300e-17     2.0600e-16     6.3800e-16     1.5700e-15     3.2700e-15     6.0600e-15     1.0200e-14     1.6200e-14     2.4100e-14     3.4300e-14     4.7100e-14     6.2600e-14     8.1100e-14     1.0300e-13     1.2700e-13     1.5500e-13     1.8700e-13     2.2200e-13     2.6000e-13     3.0100e-13     3.4600e-13     3.9500e-13     4.4600e-13     5.0100e-13     5.5900e-13     6.2000e-13     6.8300e-13     7.5000e-13     8.2000e-13     8.9200e-13     9.6700e-13     1.0400e-12     1.1200e-12     1.2000e-12     1.2900e-12
    6     17          0.0000     1.2600e-42     6.9700e-28     5.7400e-23     1.7200e-20     5.5400e-19     5.8400e-18     3.2600e-17     1.2200e-16     3.5100e-16     8.3400e-16     1.7300e-15     3.2200e-15     5.5200e-15     8.8600e-15     1.3500e-14     1.9700e-14     2.7600e-14     3.7500e-14     4.9700e-14     6.4200e-14     8.1300e-14     1.0100e-13     1.2400e-13     1.4900e-13     1.7800e-13     2.1000e-13     2.4500e-13     2.8300e-13     3.2400e-13     3.6900e-13     4.1600e-13     4.6700e-13     5.2100e-13     5.7800e-13     6.3700e-13     7.0000e-13     7.6500e-13     8.3300e-13     9.0400e-13     9.7600e-13
    6     18          0.0000         0.0000     4.7400e-30     1.6600e-24     1.0400e-21     5.1900e-20     7.3400e-19     5.0500e-18     2.2100e-17     7.1600e-17     1.8700e-16     4.2000e-16     8.3500e-16     1.5200e-15     2.5600e-15     4.0700e-15     6.1600e-15     8.9500e-15     1.2600e-14     1.7100e-14     2.2700e-14     2.9500e-14     3.7600e-14     4.7000e-14     5.8000e-14     7.0500e-14     8.4600e-14     1.0000e-13     1.1800e-13     1.3700e-13     1.5900e-13     1.8200e-13     2.0700e-13     2.3400e-13     2.6300e-13     2.9400e-13     3.2600e-13     3.6100e-13     3.9700e-13     4.3400e-13     4.7400e-13
    6     19          0.0000         0.0000     1.5400e-32     2.9500e-26     4.3400e-23     3.6400e-21     7.3300e-20     6.5400e-19     3.5000e-18     1.3300e-17     3.9800e-17     9.9800e-17     2.1900e-16     4.3100e-16     7.8300e-16     1.3300e-15     2.1300e-15     3.2600e-15     4.7900e-15     6.8000e-15     9.3800e-15     1.2600e-14     1.6600e-14     2.1300e-14     2.7000e-14     3.3600e-14     4.1200e-14     5.0000e-14     5.9800e-14     7.0900e-14     8.3300e-14     9.6900e-14     1.1200e-13     1.2800e-13     1.4600e-13     1.6500e-13     1.8600e-13     2.0700e-13     2.3000e-13     2.5500e-13     2.8000e-13
    6     20          0.0000         0.0000     4.4600e-35     5.0900e-28     1.7700e-24     2.4700e-22     6.9700e-21     7.9000e-20     5.0700e-19     2.2200e-18     7.4700e-18     2.0600e-17     4.9100e-17     1.0400e-16     2.0200e-16     3.6200e-16     6.1200e-16     9.8300e-16     1.5100e-15     2.2400e-15     3.2000e-15     4.4600e-15     6.0700e-15     8.0700e-15     1.0500e-14     1.3500e-14     1.7000e-14     2.1200e-14     2.6000e-14     3.1600e-14     3.8000e-14     4.5100e-14     5.3200e-14     6.2200e-14     7.2000e-14     8.2800e-14     9.4500e-14     1.0700e-13     1.2100e-13     1.3500e-13     1.5000e-13
    6     21          0.0000         0.0000     5.4600e-38     4.7700e-30     4.6900e-26     1.2400e-23     5.4500e-22     8.5600e-21     7.0900e-20     3.8200e-19     1.5200e-18     4.8700e-18     1.3200e-17     3.1200e-17     6.6700e-17     1.3100e-16     2.4000e-16     4.1400e-16     6.8000e-16     1.0700e-15     1.6200e-15     2.3800e-15     3.4000e-15     4.7400e-15     6.4500e-15     8.6100e-15     1.1300e-14     1.4500e-14     1.8500e-14     2.3200e-14     2.8700e-14     3.5100e-14     4.2400e-14     5.0800e-14     6.0200e-14     7.0700e-14     8.2200e-14     9.4800e-14     1.0800e-13     1.2300e-13     1.3800e-13
    7      1      9.9500e-13     1.0700e-12     1.1200e-12     1.1500e-12     1.1900e-12     1.2300e-12     1.2700e-12     1.3200e-12     1.3600e-12     1.4100e-12     1.4600e-12     1.4900e-12     1.5400e-12     1.5800e-12     1.6200e-12     1.6500e-12     1.6900e-12     1.7200e-12     1.7500e-12     1.7900e-12     1.8200e-12     1.8500e-12     1.8700e-12     1.9000e-12     1.9300e-12     1.9500e-12     1.9800e-12     2.0100e-12     2.0300e-12     2.0500e-12     2.0800e-12     2.1000e-12     2.1300e-12     2.1500e-12     2.1800e-12     2.2000e-12     2.2200e-12     2.2500e-12     2.2700e-12     2.2900e-12     2.3200e-12
    7      2      2.0700e-12     2.5500e-12     3.0100e-12     3.3200e-12     3.6600e-12     4.0300e-12     4.4300e-12     4.8700e-12     5.3200e-12     5.8000e-12     6.3000e-12     6.7600e-12     7.2800e-12     7.7800e-12     8.2900e-12     8.7800e-12     9.2600e-12     9.7400e-12     1.0200e-11     1.0700e-11     1.1100e-11     1.1600e-11     1.2000e-11     1.2400e-11     1.2800e-11     1.3200e-11     1.3700e-11     1.4000e-11     1.4400e-11     1.4800e-11     1.5200e-11     1.5500e-11     1.5900e-11     1.6200e-11     1.6500e-11     1.6900e-11     1.7200e-11     1.7500e-11     1.7800e-11     1.8100e-11     1.8400e-11
    7      3      1.2600e-11     1.3400e-11     1.3800e-11     1.3800e-11     1.3800e-11     1.3800e-11     1.3800e-11     1.3900e-11     1.4000e-11     1.4000e-11     1.4200e-11     1.4200e-11     1.4400e-11     1.4500e-11     1.4700e-11     1.4800e-11     1.4900e-11     1.5000e-11     1.5200e-11     1.5400e-11     1.5500e-11     1.5600e-11     1.5700e-11     1.5900e-11     1.6100e-11     1.6200e-11     1.6400e-11     1.6500e-11     1.6700e-11     1.6800e-11     1.7000e-11     1.7100e-11     1.7300e-11     1.7400e-11     1.7600e-11     1.7800e-11     1.8000e-11     1.8100e-11     1.8300e-11     1.8400e-11     1.8600e-11
    7      4      1.6100e-11     1.9700e-11     2.2300e-11     2.3300e-11     2.4200e-11     2.5100e-11     2.6100e-11     2.7100e-11     2.8100e-11     2.9200e-11     3.0300e-11     3.1100e-11     3.2300e-11     3.3200e-11     3.4400e-11     3.5400e-11     3.6200e-11     3.7100e-11     3.7900e-11     3.8800e-11     3.9600e-11     4.0400e-11     4.1100e-11     4.1900e-11     4.2700e-11     4.3300e-11     4.4100e-11     4.4800e-11     4.5500e-11     4.6100e-11     4.6700e-11     4.7200e-11     4.7800e-11     4.8400e-11     4.8900e-11     4.9500e-11     5.0000e-11     5.0500e-11     5.1000e-11     5.1500e-11     5.2000e-11
    7      5      8.2000e-11     9.0400e-11     9.4500e-11     9.3900e-11     9.2500e-11     9.1200e-11     9.0200e-11     8.9300e-11     8.8500e-11     8.8100e-11     8.7900e-11     8.7000e-11     8.7400e-11     8.7500e-11     8.8100e-11     8.8000e-11     8.7900e-11     8.8000e-11     8.8200e-11     8.8700e-11     8.9000e-11     8.9400e-11     8.9300e-11     8.9800e-11     9.0200e-11     9.0500e-11     9.0900e-11     9.1400e-11     9.2000e-11     9.2100e-11     9.2400e-11     9.2700e-11     9.3000e-11     9.3200e-11     9.3600e-11     9.4100e-11     9.4500e-11     9.5000e-11     9.5400e-11     9.5800e-11     9.6200e-11
    7      6      6.4500e-11     7.7800e-11     8.2100e-11     8.1200e-11     8.0200e-11     7.9700e-11     7.9500e-11     7.9600e-11     7.9700e-11     8.0600e-11     8.0500e-11     8.1900e-11     8.1500e-11     8.1600e-11     8.3200e-11     8.4300e-11     8.4700e-11     8.5500e-11     8.6000e-11     8.6400e-11     8.6700e-11     8.7500e-11     8.8000e-11     8.8300e-11     8.8600e-11     8.8900e-11     8.9600e-11     9.0400e-11     9.1000e-11     9.1500e-11     9.1900e-11     9.2500e-11     9.3100e-11     9.3600e-11     9.4100e-11     9.4400e-11     9.4800e-11     9.5100e-11     9.5400e-11     9.5800e-11     9.6200e-11
    7      7      6.7800e-10     7.0300e-10     8.8100e-10     1.1000e-09     1.3100e-09     1.4900e-09     1.6500e-09     1.7800e-09     1.8900e-09     1.9900e-09     2.0800e-09     2.1400e-09     2.2100e-09     2.2700e-09     2.3200e-09     2.3600e-09     2.4000e-09     2.4400e-09     2.4700e-09     2.5000e-09     2.5200e-09     2.5500e-09     2.5700e-09     2.5900e-09     2.6000e-09     2.6200e-09     2.6300e-09     2.6500e-09     2.6600e-09     2.6700e-09     2.6800e-09     2.6900e-09     2.7000e-09     2.7100e-09     2.7100e-09     2.7200e-09     2.7300e-09     2.7400e-09     2.7400e-09     2.7500e-09     2.7500e-09
    7      8      2.4400e-14     1.6600e-12     1.3500e-11     2.6200e-11     3.6100e-11     4.3700e-11     4.9700e-11     5.4500e-11     5.8700e-11     6.1600e-11     6.5900e-11     6.6900e-11     7.0500e-11     7.3400e-11     7.4600e-11     7.6000e-11     7.7800e-11     7.9800e-11     8.1000e-11     8.2900e-11     8.4400e-11     8.5600e-11     8.6200e-11     8.7300e-11     8.9000e-11     9.0400e-11     9.1200e-11     9.1800e-11     9.2600e-11     9.3600e-11     9.4400e-11     9.5100e-11     9.5600e-11     9.6200e-11     9.6900e-11     9.7700e-11     9.8700e-11     9.9600e-11     1.0100e-10     1.0100e-10     1.0200e-10
    7      9      8.1600e-18     3.3700e-14     2.1300e-12     8.2600e-12     1.6000e-11     2.3700e-11     3.0600e-11     3.6800e-11     4.2100e-11     4.6800e-11     5.0900e-11     5.4300e-11     5.7900e-11     6.1200e-11     6.3900e-11     6.6500e-11     6.8900e-11     7.1000e-11     7.3000e-11     7.4800e-11     7.6800e-11     7.8400e-11     8.0000e-11     8.1600e-11     8.3300e-11     8.4900e-11     8.6200e-11     8.7500e-11     8.8700e-11     9.0000e-11     9.1300e-11     9.2500e-11     9.3700e-11     9.4700e-11     9.5800e-11     9.6900e-11     9.8000e-11     9.9000e-11     1.0000e-10     1.0100e-10     1.0200e-10
    7     10      1.3300e-22     8.0600e-17     6.5700e-14     6.2100e-13     1.9200e-12     3.8200e-12     6.0700e-12     8.5200e-12     1.1000e-11     1.3600e-11     1.6000e-11     1.8500e-11     2.0900e-11     2.3100e-11     2.5400e-11     2.7600e-11     2.9700e-11     3.1600e-11     3.3500e-11     3.5300e-11     3.7000e-11     3.8700e-11     4.0400e-11     4.2000e-11     4.3600e-11     4.5000e-11     4.6500e-11     4.7900e-11     4.9200e-11     5.0500e-11     5.1700e-11     5.2900e-11     5.4200e-11     5.5300e-11     5.6400e-11     5.7500e-11     5.8600e-11     5.9600e-11     6.0600e-11     6.1600e-11     6.2500e-11
    7     11      1.2200e-27     1.9700e-19     2.4100e-15     5.4600e-14     2.5800e-13     6.5400e-13     1.2100e-12     1.8900e-12     2.6400e-12     3.4200e-12     4.2100e-12     5.0100e-12     5.7900e-12     6.5500e-12     7.3000e-12     8.0200e-12     8.7300e-12     9.4100e-12     1.0100e-11     1.0700e-11     1.1400e-11     1.2000e-11     1.2600e-11     1.3200e-11     1.3800e-11     1.4300e-11     1.4900e-11     1.5500e-11     1.6000e-11     1.6600e-11     1.7100e-11     1.7600e-11     1.8100e-11     1.8600e-11     1.9100e-11     1.9600e-11     2.0100e-11     2.0600e-11     2.1000e-11     2.1500e-11     2.2000e-11
    7     12      4.2700e-33     2.8100e-22     7.2800e-17     4.7800e-15     3.9600e-14     1.4400e-13     3.4600e-13     6.5700e-13     1.0700e-12     1.5900e-12     2.1900e-12     2.8700e-12     3.6100e-12     4.4000e-12     5.2400e-12     6.1100e-12     7.0100e-12     7.9200e-12     8.8600e-12     9.8100e-12     1.0800e-11     1.1700e-11     1.2700e-11     1.3600e-11     1.4600e-11     1.5600e-11     1.6500e-11     1.7500e-11     1.8400e-11     1.9300e-11     2.0200e-11     2.1100e-11     2.2000e-11     2.2900e-11     2.3800e-11     2.4700e-11     2.5500e-11     2.6400e-11     2.7200e-11     2.8000e-11     2.8800e-11
    7     13      9.1600e-40     1.0900e-25     9.7700e-19     1.9600e-16     2.7900e-15     1.3800e-14     4.0500e-14     8.8000e-14     1.5900e-13     2.5200e-13     3.6700e-13     5.0100e-13     6.5200e-13     8.1800e-13     9.9500e-13     1.1800e-12     1.3800e-12     1.5800e-12     1.7900e-12     2.0000e-12     2.2200e-12     2.4400e-12     2.6600e-12     2.8900e-12     3.1100e-12     3.3400e-12     3.5700e-12     3.8000e-12     4.0300e-12     4.2600e-12     4.4900e-12     4.7200e-12     4.9500e-12     5.1900e-12     5.4200e-12     5.6500e-12     5.8800e-12     6.1100e-12     6.3400e-12     6.5700e-12     6.8000e-12
    7     14          0.0000     4.3400e-29     1.6700e-20     1.2000e-17     3.3200e-16     2.5000e-15     9.8800e-15     2.6900e-14     5.8100e-14     1.0700e-13     1.7700e-13     2.7000e-13     3.8600e-13     5.2700e-13     6.9200e-13     8.8100e-13     1.0900e-12     1.3300e-12     1.5800e-12     1.8500e-12     2.1400e-12     2.4500e-12     2.7700e-12     3.1000e-12     3.4500e-12     3.8100e-12     4.1800e-12     4.5600e-12     4.9500e-12     5.3400e-12     5.7400e-12     6.1500e-12     6.5600e-12     6.9800e-12     7.4000e-12     7.8300e-12     8.2600e-12     8.6900e-12     9.1200e-12     9.5600e-12     9.9900e-12
    7     15          0.0000     9.2400e-33     1.5300e-22     3.8200e-19     1.9500e-17     2.1100e-16     1.0500e-15     3.3800e-15     8.2400e-15     1.6700e-14     2.9700e-14     4.8000e-14     7.2100e-14     1.0300e-13     1.3900e-13     1.8300e-13     2.3300e-13     2.8900e-13     3.5200e-13     4.2000e-13     4.9400e-13     5.7400e-13     6.5900e-13     7.4900e-13     8.4400e-13     9.4300e-13     1.0500e-12     1.1500e-12     1.2600e-12     1.3800e-12     1.4900e-12     1.6100e-12     1.7300e-12     1.8600e-12     1.9900e-12     2.1100e-12     2.2400e-12     2.3800e-12     2.5100e-12     2.6400e-12     2.7800e-12
    7     16          0.0000     2.0100e-36     1.6200e-24     1.5600e-20     1.6100e-18     2.7100e-17     1.8400e-16     7.4800e-16     2.1900e-15     5.1700e-15     1.0400e-14     1.8800e-14     3.1100e-14     4.8100e-14     7.0500e-14     9.8800e-14     1.3400e-13     1.7500e-13     2.2400e-13     2.8000e-13     3.4300e-13     4.1400e-13     4.9200e-13     5.7800e-13     6.7100e-13     7.7100e-13     8.7700e-13     9.9100e-13     1.1100e-12     1.2400e-12     1.3700e-12     1.5100e-12     1.6500e-12     1.8000e-12     1.9500e-12     2.1100e-12     2.2700e-12     2.4400e-12     2.6100e-12     2.7800e-12     2.9600e-12
    7     17          0.0000     7.3100e-41     7.6100e-27     3.5400e-22     7.8800e-20     2.0900e-18     1.9100e-17     9.5600e-17     3.2700e-16     8.6700e-16     1.9200e-15     3.7400e-15     6.5900e-15     1.0700e-14     1.6500e-14     2.4000e-14     3.3700e-14     4.5700e-14     6.0100e-14     7.7200e-14     9.7000e-14     1.2000e-13     1.4600e-13     1.7400e-13     2.0600e-13     2.4100e-13     2.7900e-13     3.2000e-13     3.6500e-13     4.1200e-13     4.6200e-13     5.1600e-13     5.7200e-13     6.3100e-13     6.9300e-13     7.5700e-13     8.2400e-13     8.9300e-13     9.6500e-13     1.0400e-12     1.1100e-12
    7     18          0.0000     7.0100e-45     4.7000e-29     9.5500e-24     4.5500e-21     1.9300e-19     2.4500e-18     1.5600e-17     6.4600e-17     2.0000e-16     5.0500e-16     1.1000e-15     2.1300e-15     3.7800e-15     6.2500e-15     9.7500e-15     1.4500e-14     2.0800e-14     2.8700e-14     3.8600e-14     5.0500e-14     6.4700e-14     8.1400e-14     1.0100e-13     1.2300e-13     1.4700e-13     1.7500e-13     2.0500e-13     2.3900e-13     2.7500e-13     3.1500e-13     3.5700e-13     4.0300e-13     4.5100e-13     5.0300e-13     5.5700e-13     6.1400e-13     6.7400e-13     7.3600e-13     8.0000e-13     8.6600e-13
    7     19          0.0000         0.0000     1.8000e-31     1.9500e-25     2.1300e-22     1.4900e-20     2.6200e-19     2.1100e-18     1.0400e-17     3.6700e-17     1.0300e-16     2.4500e-16     5.1000e-16     9.6300e-16     1.6800e-15     2.7400e-15     4.2400e-15     6.2800e-15     8.9500e-15     1.2400e-14     1.6600e-14     2.1800e-14     2.8000e-14     3.5200e-14     4.3700e-14     5.3400e-14     6.4400e-14     7.6700e-14     9.0400e-14     1.0600e-13     1.2200e-13     1.4000e-13     1.6000e-13     1.8100e-13     2.0300e-13     2.2700e-13     2.5200e-13     2.7900e-13     3.0700e-13     3.3600e-13     3.6600e-13
    7     20          0.0000         0.0000     4.4800e-34     2.9400e-27     7.7300e-24     9.1200e-22     2.2900e-20     2.3900e-19     1.4400e-18     5.9900e-18     1.9300e-17     5.1300e-17     1.1800e-16     2.4400e-16     4.6100e-16     8.1000e-16     1.3400e-15     2.1100e-15     3.1700e-15     4.6200e-15     6.5000e-15     8.9100e-15     1.1900e-14     1.5600e-14     2.0100e-14     2.5300e-14     3.1500e-14     3.8700e-14     4.6900e-14     5.6200e-14     6.6700e-14     7.8400e-14     9.1400e-14     1.0600e-13     1.2100e-13     1.3800e-13     1.5600e-13     1.7500e-13     1.9500e-13     2.1700e-13     2.3900e-13
    7     21          0.0000         0.0000     6.5500e-37     3.2500e-29     2.3800e-25     5.2500e-23     2.0200e-21     2.8700e-20     2.1900e-19     1.1000e-18     4.1400e-18     1.2600e-17     3.2400e-17     7.3800e-17     1.5200e-16     2.8900e-16     5.1200e-16     8.6000e-16     1.3800e-15     2.1200e-15     3.1400e-15     4.5200e-15     6.3300e-15     8.6600e-15     1.1600e-14     1.5200e-14     1.9700e-14     2.5000e-14     3.1400e-14     3.8900e-14     4.7600e-14     5.7600e-14     6.9000e-14     8.1900e-14     9.6200e-14     1.1200e-13     1.2900e-13     1.4800e-13     1.6800e-13     1.8900e-13     2.1200e-13
    8      1      1.4300e-13     1.8500e-13     2.3000e-13     2.6700e-13     3.0800e-13     3.5800e-13     4.1600e-13     4.8100e-13     5.5400e-13     6.3100e-13     7.1300e-13     8.0200e-13     8.9500e-13     9.8900e-13     1.0900e-12     1.1800e-12     1.2800e-12     1.3800e-12     1.4800e-12     1.5800e-12     1.6800e-12     1.7800e-12     1.8800e-12     1.9800e-12     2.0800e-12     2.1700e-12     2.2700e-12     2.3600e-12     2.4500e-12     2.5500e-12     2.6400e-12     2.7300e-12     2.8100e-12     2.9000e-12     2.9900e-12     3.0700e-12     3.1500e-12     3.2400e-12     3.3200e-12     3.4000e-12     3.4700e-12
    8      2      1.5700e-12     1.7400e-12     1.8600e-12     1.9400e-12     2.0200e-12     2.1100e-12     2.2000e-12     2.2900e-12     2.3900e-12     2.4800e-12     2.5700e-12     2.6700e-12     2.7600e-12     2.8500e-12     2.9500e-12     3.0400e-12     3.1200e-12     3.2100e-12     3.2900e-12     3.3700e-12     3.4400e-12     3.5300e-12     3.6000e-12     3.6800e-12     3.7500e-12     3.8100e-12     3.8900e-12     3.9600e-12     4.0300e-12     4.1000e-12     4.1700e-12     4.2300e-12     4.3000e-12     4.3600e-12     4.4200e-12     4.4800e-12     4.5500e-12     4.6100e-12     4.6700e-12     4.7300e-12     4.7900e-12
    8      3      2.8300e-12     3.4600e-12     4.1100e-12     4.5300e-12     4.9400e-12     5.3900e-12     5.8600e-12     6.3700e-12     6.9100e-12     7.4500e-12     7.9900e-12     8.5700e-12     9.1600e-12     9.7300e-12     1.0300e-11     1.0900e-11     1.1400e-11     1.2000e-11     1.2500e-11     1.3100e-11     1.3600e-11     1.4100e-11     1.4600e-11     1.5100e-11     1.5600e-11     1.6100e-11     1.6600e-11     1.7100e-11     1.7500e-11     1.8000e-11     1.8400e-11     1.8800e-11     1.9200e-11     1.9600e-11     2.0000e-11     2.0400e-11     2.0800e-11     2.1200e-11     2.1600e-11     2.2000e-11     2.2300e-11
    8      4      1.3500e-11     1.4600e-11     1.4900e-11     1.4900e-11     1.4800e-11     1.4800e-11     1.4800e-11     1.4900e-11     1.4900e-11     1.5000e-11     1.5100e-11     1.5200e-11     1.5300e-11     1.5400e-11     1.5600e-11     1.5700e-11     1.5800e-11     1.5900e-11     1.6100e-11     1.6300e-11     1.6400e-11     1.6600e-11     1.6700e-11     1.6900e-11     1.7100e-11     1.7200e-11     1.7400e-11     1.7600e-11     1.7800e-11     1.8000e-11     1.8200e-11     1.8400e-11     1.8600e-11     1.8700e-11     1.8900e-11     1.9100e-11     1.9300e-11     1.9400e-11     1.9600e-11     1.9900e-11     2.0100e-11
    8      5      1.7800e-11     2.2000e-11     2.5500e-11     2.6900e-11     2.7900e-11     2.8900e-11     2.9900e-11     3.0900e-11     3.1900e-11     3.2900e-11     3.3900e-11     3.4800e-11     3.6000e-11     3.6900e-11     3.7800e-11     3.8700e-11     3.9600e-11     4.0500e-11     4.1300e-11     4.2200e-11     4.2900e-11     4.3700e-11     4.4400e-11     4.5100e-11     4.5800e-11     4.6400e-11     4.7100e-11     4.7800e-11     4.8300e-11     4.9000e-11     4.9500e-11     5.0100e-11     5.0700e-11     5.1200e-11     5.1700e-11     5.2200e-11     5.2700e-11     5.3300e-11     5.3800e-11     5.4300e-11     5.4700e-11
    8      6      8.5400e-11     9.4500e-11     9.7800e-11     9.6600e-11     9.4700e-11     9.3000e-11     9.1700e-11     9.0500e-11     8.9700e-11     8.8800e-11     8.8300e-11     8.8000e-11     8.7500e-11     8.7600e-11     8.8200e-11     8.8200e-11     8.8200e-11     8.8000e-11     8.8200e-11     8.8600e-11     8.8700e-11     8.9200e-11     8.9300e-11     8.9700e-11     8.9900e-11     8.9900e-11     9.0600e-11     9.1100e-11     9.1600e-11     9.2000e-11     9.2400e-11     9.2800e-11     9.3200e-11     9.3300e-11     9.3500e-11     9.4000e-11     9.4200e-11     9.4500e-11     9.5000e-11     9.5600e-11     9.6000e-11
    8      7      4.8700e-11     6.8900e-11     8.0800e-11     8.2500e-11     8.2500e-11     8.2200e-11     8.2100e-11     8.2200e-11     8.2600e-11     8.2100e-11     8.4100e-11     8.2500e-11     8.4300e-11     8.5700e-11     8.5300e-11     8.5300e-11     8.5900e-11     8.6800e-11     8.7100e-11     8.8000e-11     8.8800e-11     8.9200e-11     8.9000e-11     8.9600e-11     9.0600e-11     9.1400e-11     9.1800e-11     9.1900e-11     9.2100e-11     9.2700e-11     9.3100e-11     9.3400e-11     9.3500e-11     9.3700e-11     9.4100e-11     9.4600e-11     9.5200e-11     9.5900e-11     9.6500e-11     9.7000e-11     9.7400e-11
    8      8      6.1600e-10     6.7700e-10     8.7000e-10     1.1000e-09     1.3100e-09     1.4900e-09     1.6500e-09     1.7800e-09     1.9000e-09     1.9900e-09     2.0800e-09     2.1500e-09     2.2100e-09     2.2700e-09     2.3200e-09     2.3600e-09     2.4000e-09     2.4400e-09     2.4700e-09     2.5000e-09     2.5300e-09     2.5500e-09     2.5700e-09     2.5900e-09     2.6100e-09     2.6200e-09     2.6400e-09     2.6500e-09     2.6600e-09     2.6700e-09     2.6800e-09     2.6900e-09     2.7000e-09     2.7100e-09     2.7200e-09     2.7200e-09     2.7300e-09     2.7400e-09     2.7400e-09     2.7500e-09     2.7500e-09
    8      9      8.9900e-15     9.5500e-13     1.0300e-11     2.2100e-11     3.2000e-11     3.9900e-11     4.6100e-11     5.1200e-11     5.5700e-11     5.9300e-11     6.1900e-11     6.6000e-11     6.7400e-11     6.9200e-11     7.2600e-11     7.4600e-11     7.6200e-11     7.7200e-11     7.8900e-11     8.0800e-11     8.1600e-11     8.3000e-11     8.4800e-11     8.6000e-11     8.6600e-11     8.7200e-11     8.8300e-11     8.9800e-11     9.1100e-11     9.1900e-11     9.2500e-11     9.3300e-11     9.4300e-11     9.5100e-11     9.5600e-11     9.6100e-11     9.6500e-11     9.7100e-11     9.7700e-11     9.8400e-11     9.9100e-11
    8     10      8.3800e-19     1.0700e-14     1.1800e-12     5.5200e-12     1.1800e-11     1.8400e-11     2.4700e-11     3.0400e-11     3.5600e-11     4.0000e-11     4.4100e-11     4.7600e-11     5.0800e-11     5.4200e-11     5.7200e-11     5.9700e-11     6.2000e-11     6.4200e-11     6.6200e-11     6.8200e-11     7.0100e-11     7.1800e-11     7.3400e-11     7.5000e-11     7.6500e-11     7.8100e-11     7.9700e-11     8.1100e-11     8.2400e-11     8.3700e-11     8.4900e-11     8.6000e-11     8.7100e-11     8.8200e-11     8.9300e-11     9.0400e-11     9.1500e-11     9.2600e-11     9.3700e-11     9.4700e-11     9.5800e-11
    8     11      4.9600e-24     1.6700e-17     3.0700e-14     3.7900e-13     1.3400e-12     2.8800e-12     4.8400e-12     7.0400e-12     9.3700e-12     1.1800e-11     1.4100e-11     1.6500e-11     1.8800e-11     2.1000e-11     2.3200e-11     2.5300e-11     2.7300e-11     2.9300e-11     3.1100e-11     3.2900e-11     3.4700e-11     3.6400e-11     3.8000e-11     3.9500e-11     4.1000e-11     4.2500e-11     4.3900e-11     4.5300e-11     4.6600e-11     4.7900e-11     4.9100e-11     5.0300e-11     5.1400e-11     5.2500e-11     5.3600e-11     5.4700e-11     5.5800e-11     5.6800e-11     5.7800e-11     5.8800e-11     5.9700e-11
    8     12      1.4600e-29     2.0600e-20     7.6700e-16     2.5200e-14     1.4400e-13     4.0600e-13     8.1200e-13     1.3300e-12     1.9300e-12     2.5800e-12     3.2600e-12     3.9500e-12     4.6400e-12     5.3200e-12     6.0000e-12     6.6600e-12     7.3100e-12     7.9400e-12     8.5700e-12     9.1800e-12     9.7800e-12     1.0400e-11     1.0900e-11     1.1500e-11     1.2100e-11     1.2600e-11     1.3200e-11     1.3700e-11     1.4200e-11     1.4700e-11     1.5200e-11     1.5700e-11     1.6200e-11     1.6700e-11     1.7200e-11     1.7700e-11     1.8200e-11     1.8600e-11     1.9100e-11     1.9600e-11     2.0000e-11
    8     13      5.9600e-36     1.4800e-23     1.9200e-17     2.0600e-15     2.1500e-14     8.9600e-14     2.3500e-13     4.7400e-13     8.1000e-13     1.2400e-12     1.7500e-12     2.3400e-12     3.0000e-12     3.7100e-12     4.4600e-12     5.2500e-12     6.0800e-12     6.9300e-12     7.7900e-12     8.6700e-12     9.5700e-12     1.0500e-11     1.1400e-11     1.2300e-11     1.3200e-11     1.4100e-11     1.5000e-11     1.5900e-11     1.6700e-11     1.7600e-11     1.8500e-11     1.9400e-11     2.0200e-11     2.1100e-11     2.1900e-11     2.2700e-11     2.3500e-11     2.4300e-11     2.5100e-11     2.5900e-11     2.6700e-11
    8     14      6.8800e-43     3.0500e-27     1.6700e-19     6.0900e-17     1.1700e-15     6.8900e-15     2.2700e-14     5.3600e-14     1.0300e-13     1.7100e-13     2.5900e-13     3.6400e-13     4.8500e-13     6.2100e-13     7.7000e-13     9.2900e-13     1.1000e-12     1.2700e-12     1.4600e-12     1.6400e-12     1.8400e-12     2.0300e-12     2.2300e-12     2.4400e-12     2.6400e-12     2.8500e-12     3.0600e-12     3.2700e-12     3.4800e-12     3.6900e-12     3.9100e-12     4.1200e-12     4.3400e-12     4.5500e-12     4.7700e-12     4.9800e-12     5.2000e-12     5.4100e-12     5.6300e-12     5.8400e-12     6.0600e-12
    8     15          0.0000     1.2500e-30     2.9600e-21     3.9000e-18     1.4500e-16     1.3000e-15     5.7700e-15     1.7000e-14     3.9000e-14     7.5400e-14     1.2900e-13     2.0300e-13     2.9700e-13     4.1300e-13     5.5200e-13     7.1200e-13     8.9300e-13     1.1000e-12     1.3200e-12     1.5600e-12     1.8100e-12     2.0900e-12     2.3700e-12     2.6800e-12     2.9900e-12     3.3100e-12     3.6500e-12     4.0000e-12     4.3500e-12     4.7100e-12     5.0800e-12     5.4600e-12     5.8400e-12     6.2300e-12     6.6200e-12     7.0200e-12     7.4200e-12     7.8200e-12     8.2200e-12     8.6300e-12     9.0400e-12
    8     16          0.0000     1.6600e-34     1.9100e-23     9.4400e-20     6.8200e-18     9.1200e-17     5.2500e-16     1.8700e-15     4.9100e-15     1.0500e-14     1.9600e-14     3.2900e-14     5.1000e-14     7.4400e-14     1.0300e-13     1.3800e-13     1.7900e-13     2.2500e-13     2.7800e-13     3.3500e-13     3.9900e-13     4.6700e-13     5.4100e-13     6.1900e-13     7.0100e-13     7.8800e-13     8.7900e-13     9.7400e-13     1.0700e-12     1.1700e-12     1.2800e-12     1.3900e-12     1.5000e-12     1.6100e-12     1.7200e-12     1.8400e-12     1.9600e-12     2.0800e-12     2.2000e-12     2.3300e-12     2.4500e-12
    8     17          0.0000     8.3200e-39     1.2400e-25     3.0400e-21     4.9100e-19     1.0700e-17     8.6800e-17     3.9600e-16     1.2700e-15     3.1900e-15     6.7800e-15     1.2700e-14     2.1800e-14     3.4600e-14     5.1800e-14     7.4100e-14     1.0200e-13     1.3600e-13     1.7500e-13     2.2200e-13     2.7500e-13     3.3400e-13     4.0000e-13     4.7300e-13     5.5300e-13     6.3800e-13     7.3100e-13     8.2900e-13     9.3300e-13     1.0400e-12     1.1600e-12     1.2800e-12     1.4000e-12     1.5300e-12     1.6700e-12     1.8100e-12     1.9500e-12     2.1000e-12     2.2500e-12     2.4000e-12     2.5600e-12
    8     18          0.0000     6.6100e-43     6.3700e-28     6.6800e-23     2.2500e-20     7.6900e-19     8.3600e-18     4.7200e-17     1.7700e-16     5.0400e-16     1.1800e-15     2.4200e-15     4.4300e-15     7.4700e-15     1.1800e-14     1.7600e-14     2.5300e-14     3.4900e-14     4.6700e-14     6.0900e-14     7.7600e-14     9.6900e-14     1.1900e-13     1.4400e-13     1.7200e-13     2.0200e-13     2.3600e-13     2.7200e-13     3.1200e-13     3.5400e-13     3.9900e-13     4.4700e-13     4.9800e-13     5.5100e-13     6.0700e-13     6.6600e-13     7.2600e-13     7.8900e-13     8.5400e-13     9.2100e-13     9.8900e-13
    8     19          0.0000         0.0000     2.5000e-30     1.4200e-24     1.1300e-21     6.4900e-20     1.0100e-18     7.3900e-18     3.3900e-17     1.1400e-16     3.0600e-16     6.9800e-16     1.4100e-15     2.5900e-15     4.3900e-15     7.0100e-15     1.0600e-14     1.5500e-14     2.1700e-14     2.9500e-14     3.9000e-14     5.0400e-14     6.3900e-14     7.9600e-14     9.7600e-14     1.1800e-13     1.4100e-13     1.6600e-13     1.9400e-13     2.2500e-13     2.5800e-13     2.9400e-13     3.3200e-13     3.7400e-13     4.1700e-13     4.6400e-13     5.1300e-13     5.6400e-13     6.1800e-13     6.7400e-13     7.3200e-13
    8     20          0.0000         0.0000     6.3500e-33     2.1600e-26     4.0700e-23     3.8900e-21     8.4500e-20     7.8800e-19     4.3300e-18     1.6800e-17     5.0600e-17     1.2700e-16     2.8000e-16     5.5200e-16     1.0000e-15     1.6900e-15     2.7100e-15     4.1300e-15     6.0500e-15     8.5800e-15     1.1800e-14     1.5800e-14     2.0700e-14     2.6600e-14     3.3600e-14     4.1800e-14     5.1300e-14     6.2000e-14     7.4200e-14     8.7900e-14     1.0300e-13     1.2000e-13     1.3800e-13     1.5800e-13     1.8000e-13     2.0300e-13     2.2700e-13     2.5400e-13     2.8100e-13     3.1000e-13     3.3900e-13
    8     21          0.0000         0.0000     8.9800e-36     2.3400e-28     1.2400e-24     2.2600e-22     7.6000e-21     9.8200e-20     6.9500e-19     3.3000e-18     1.1800e-17     3.4300e-17     8.5200e-17     1.8700e-16     3.7400e-16     6.9000e-16     1.1900e-15     1.9500e-15     3.0500e-15     4.5800e-15     6.6500e-15     9.3800e-15     1.2900e-14     1.7300e-14     2.2700e-14     2.9300e-14     3.7200e-14     4.6600e-14     5.7500e-14     7.0100e-14     8.4500e-14     1.0100e-13     1.1900e-13     1.3900e-13     1.6200e-13     1.8600e-13     2.1300e-13     2.4100e-13     2.7100e-13     3.0200e-13     3.3500e-13
    9      1      1.6500e-13     1.6400e-13     1.7400e-13     1.8700e-13     2.0100e-13     2.1800e-13     2.3700e-13     2.5800e-13     2.8000e-13     3.0200e-13     3.2600e-13     3.4900e-13     3.7400e-13     3.9900e-13     4.2400e-13     4.4900e-13     4.7400e-13     4.9900e-13     5.2300e-13     5.4800e-13     5.7200e-13     5.9600e-13     6.1900e-13     6.4300e-13     6.6600e-13     6.8800e-13     7.1000e-13     7.3200e-13     7.5300e-13     7.7500e-13     7.9600e-13     8.1600e-13     8.3700e-13     8.5600e-13     8.7600e-13     8.9400e-13     9.1300e-13     9.3100e-13     9.4900e-13     9.6700e-13     9.8500e-13
    9      2      3.7700e-13     4.1800e-13     4.9200e-13     5.5900e-13     6.3500e-13     7.2600e-13     8.3100e-13     9.5000e-13     1.0800e-12     1.2300e-12     1.3800e-12     1.5400e-12     1.7100e-12     1.8900e-12     2.0800e-12     2.2600e-12     2.4500e-12     2.6400e-12     2.8400e-12     3.0400e-12     3.2300e-12     3.4300e-12     3.6300e-12     3.8200e-12     4.0200e-12     4.2100e-12     4.4100e-12     4.6000e-12     4.7900e-12     4.9800e-12     5.1700e-12     5.3500e-12     5.5400e-12     5.7200e-12     5.9000e-12     6.0800e-12     6.2500e-12     6.4200e-12     6.6000e-12     6.7700e-12     6.9400e-12
    9      3      2.4300e-12     2.3600e-12     2.3800e-12     2.4300e-12     2.5000e-12     2.5900e-12     2.6800e-12     2.7900e-12     2.8900e-12     3.0000e-12     3.1200e-12     3.2100e-12     3.3300e-12     3.4400e-12     3.5500e-12     3.6500e-12     3.7600e-12     3.8600e-12     3.9600e-12     4.0600e-12     4.1700e-12     4.2700e-12     4.3600e-12     4.4600e-12     4.5700e-12     4.6600e-12     4.7500e-12     4.8500e-12     4.9400e-12     5.0300e-12     5.1300e-12     5.2300e-12     5.3200e-12     5.4100e-12     5.5000e-12     5.5900e-12     5.6800e-12     5.7600e-12     5.8500e-12     5.9400e-12     6.0200e-12
    9      4      4.6500e-12     4.9300e-12     5.4900e-12     5.9300e-12     6.3700e-12     6.8600e-12     7.3800e-12     7.9300e-12     8.5000e-12     9.0800e-12     9.7000e-12     1.0300e-11     1.0900e-11     1.1500e-11     1.2100e-11     1.2700e-11     1.3300e-11     1.3900e-11     1.4500e-11     1.5000e-11     1.5600e-11     1.6100e-11     1.6700e-11     1.7200e-11     1.7700e-11     1.8200e-11     1.8700e-11     1.9200e-11     1.9700e-11     2.0200e-11     2.0600e-11     2.1100e-11     2.1500e-11     2.2000e-11     2.2400e-11     2.2800e-11     2.3200e-11     2.3600e-11     2.4000e-11     2.4400e-11     2.4800e-11
    9      5      1.7300e-11     1.6900e-11     1.6600e-11     1.6300e-11     1.6000e-11     1.5900e-11     1.5800e-11     1.5800e-11     1.5800e-11     1.5900e-11     1.5900e-11     1.5900e-11     1.6100e-11     1.6200e-11     1.6300e-11     1.6400e-11     1.6600e-11     1.6700e-11     1.6800e-11     1.6900e-11     1.7100e-11     1.7300e-11     1.7400e-11     1.7600e-11     1.7800e-11     1.8000e-11     1.8200e-11     1.8300e-11     1.8500e-11     1.8700e-11     1.8900e-11     1.9100e-11     1.9300e-11     1.9500e-11     1.9700e-11     1.9900e-11     2.0100e-11     2.0300e-11     2.0500e-11     2.0700e-11     2.0900e-11
    9      6      2.4900e-11     2.7100e-11     3.0000e-11     3.1200e-11     3.2200e-11     3.3100e-11     3.4000e-11     3.4900e-11     3.5900e-11     3.6800e-11     3.7700e-11     3.8700e-11     3.9500e-11     4.0400e-11     4.1500e-11     4.2300e-11     4.3100e-11     4.3800e-11     4.4600e-11     4.5400e-11     4.6200e-11     4.6800e-11     4.7500e-11     4.8300e-11     4.8900e-11     4.9400e-11     5.0100e-11     5.0700e-11     5.1300e-11     5.1800e-11     5.2400e-11     5.3000e-11     5.3500e-11     5.4000e-11     5.4500e-11     5.4900e-11     5.5300e-11     5.5800e-11     5.6200e-11     5.6700e-11     5.7200e-11
    9      7      1.0000e-10     1.0300e-10     1.0300e-10     1.0000e-10     9.7500e-11     9.5200e-11     9.3400e-11     9.1900e-11     9.0900e-11     8.9900e-11     8.9300e-11     8.8300e-11     8.8400e-11     8.8600e-11     8.8300e-11     8.8400e-11     8.8400e-11     8.8500e-11     8.8500e-11     8.8600e-11     8.8900e-11     8.9000e-11     8.9100e-11     8.9500e-11     9.0000e-11     9.0400e-11     9.0700e-11     9.0900e-11     9.1200e-11     9.1600e-11     9.2100e-11     9.2500e-11     9.2800e-11     9.3100e-11     9.3500e-11     9.4000e-11     9.4400e-11     9.4700e-11     9.5100e-11     9.5500e-11     9.5900e-11
    9      8      5.5200e-11     7.0300e-11     8.2700e-11     8.5200e-11     8.5400e-11     8.5200e-11     8.5100e-11     8.5100e-11     8.5400e-11     8.5600e-11     8.5000e-11     8.7100e-11     8.6000e-11     8.5800e-11     8.7900e-11     8.8400e-11     8.8700e-11     8.8400e-11     8.9000e-11     8.9900e-11     8.9800e-11     9.0400e-11     9.1500e-11     9.2000e-11     9.1900e-11     9.1800e-11     9.2400e-11     9.3400e-11     9.4200e-11     9.4400e-11     9.4600e-11     9.4900e-11     9.5500e-11     9.6000e-11     9.6100e-11     9.6200e-11     9.6300e-11     9.6500e-11     9.6900e-11     9.7200e-11     9.7700e-11
    9      9      6.8500e-10     7.0100e-10     8.8100e-10     1.1100e-09     1.3200e-09     1.5000e-09     1.6600e-09     1.7900e-09     1.9000e-09     2.0000e-09     2.0800e-09     2.1600e-09     2.2200e-09     2.2800e-09     2.3300e-09     2.3700e-09     2.4100e-09     2.4400e-09     2.4800e-09     2.5100e-09     2.5300e-09     2.5600e-09     2.5700e-09     2.5900e-09     2.6100e-09     2.6300e-09     2.6400e-09     2.6600e-09     2.6700e-09     2.6800e-09     2.6900e-09     2.7000e-09     2.7000e-09     2.7100e-09     2.7200e-09     2.7300e-09     2.7400e-09     2.7400e-09     2.7500e-09     2.7500e-09     2.7600e-09
    9     10      3.2400e-15     5.5900e-13     7.8500e-12     1.8700e-11     2.8500e-11     3.6600e-11     4.3100e-11     4.8500e-11     5.3000e-11     5.6900e-11     6.0200e-11     6.3200e-11     6.5900e-11     6.8300e-11     7.0300e-11     7.2300e-11     7.4200e-11     7.6100e-11     7.7700e-11     7.9000e-11     8.0200e-11     8.1300e-11     8.2500e-11     8.3700e-11     8.4900e-11     8.6200e-11     8.7300e-11     8.8400e-11     8.9400e-11     9.0300e-11     9.1100e-11     9.1900e-11     9.2700e-11     9.3500e-11     9.4200e-11     9.4900e-11     9.5600e-11     9.6200e-11     9.6800e-11     9.7300e-11     9.7800e-11
    9     11      7.8900e-20     3.3000e-15     6.5000e-13     3.6800e-12     8.6300e-12     1.4300e-11     1.9900e-11     2.5200e-11     3.0000e-11     3.4400e-11     3.8300e-11     4.1900e-11     4.5200e-11     4.8200e-11     5.1000e-11     5.3600e-11     5.5900e-11     5.8200e-11     6.0300e-11     6.2300e-11     6.4200e-11     6.6000e-11     6.7800e-11     6.9400e-11     7.1000e-11     7.2500e-11     7.4000e-11     7.5400e-11     7.6700e-11     7.8000e-11     7.9300e-11     8.0500e-11     8.1600e-11     8.2800e-11     8.3900e-11     8.5000e-11     8.6000e-11     8.7100e-11     8.8100e-11     8.9200e-11     9.0200e-11
    9     12      2.0800e-25     3.4800e-18     1.4200e-14     2.3000e-13     9.3400e-13     2.1800e-12     3.8500e-12     5.8100e-12     7.9400e-12     1.0200e-11     1.2400e-11     1.4700e-11     1.6900e-11     1.9100e-11     2.1200e-11     2.3200e-11     2.5200e-11     2.7100e-11     2.9000e-11     3.0800e-11     3.2500e-11     3.4200e-11     3.5800e-11     3.7300e-11     3.8800e-11     4.0300e-11     4.1700e-11     4.3000e-11     4.4400e-11     4.5600e-11     4.6800e-11     4.8000e-11     4.9200e-11     5.0300e-11     5.1400e-11     5.2400e-11     5.3500e-11     5.4500e-11     5.5400e-11     5.6400e-11     5.7300e-11
    9     13      5.5400e-32     1.6600e-21     2.3300e-16     1.1500e-14     7.9700e-14     2.5300e-13     5.4500e-13     9.4300e-13     1.4200e-12     1.9600e-12     2.5400e-12     3.1400e-12     3.7400e-12     4.3600e-12     4.9700e-12     5.5800e-12     6.1700e-12     6.7700e-12     7.3500e-12     7.9200e-12     8.4800e-12     9.0400e-12     9.5800e-12     1.0100e-11     1.0700e-11     1.1200e-11     1.1700e-11     1.2200e-11     1.2700e-11     1.3200e-11     1.3700e-11     1.4200e-11     1.4700e-11     1.5100e-11     1.5600e-11     1.6100e-11     1.6600e-11     1.7000e-11     1.7500e-11     1.7900e-11     1.8400e-11
    9     14      1.5000e-38     7.9500e-25     4.7200e-18     8.3000e-16     1.1100e-14     5.3500e-14     1.5400e-13     3.3200e-13     5.9600e-13     9.4700e-13     1.3800e-12     1.8900e-12     2.4600e-12     3.0900e-12     3.7700e-12     4.4900e-12     5.2400e-12     6.0200e-12     6.8200e-12     7.6400e-12     8.4800e-12     9.3200e-12     1.0200e-11     1.1000e-11     1.1900e-11     1.2700e-11     1.3600e-11     1.4400e-11     1.5300e-11     1.6100e-11     1.7000e-11     1.7800e-11     1.8600e-11     1.9400e-11     2.0200e-11     2.1000e-11     2.1800e-11     2.2600e-11     2.3300e-11     2.4100e-11     2.4800e-11
    9     15      1.4000e-45     1.3400e-28     3.4600e-20     2.1300e-17     5.2700e-16     3.6400e-15     1.3300e-14     3.3800e-14     6.8400e-14     1.1900e-13     1.8600e-13     2.6900e-13     3.6800e-13     4.8000e-13     6.0400e-13     7.4000e-13     8.8500e-13     1.0400e-12     1.2000e-12     1.3700e-12     1.5400e-12     1.7200e-12     1.9000e-12     2.0800e-12     2.2700e-12     2.4600e-12     2.6500e-12     2.8400e-12     3.0400e-12     3.2300e-12     3.4300e-12     3.6300e-12     3.8300e-12     4.0300e-12     4.2300e-12     4.4300e-12     4.6300e-12     4.8300e-12     5.0300e-12     5.2300e-12     5.4300e-12
    9     16          0.0000     4.2500e-32     5.2800e-22     1.2400e-18     6.2100e-17     6.6800e-16     3.3300e-15     1.0700e-14     2.6100e-14     5.2800e-14     9.3800e-14     1.5200e-13     2.2800e-13     3.2300e-13     4.3900e-13     5.7400e-13     7.3000e-13     9.0500e-13     1.1000e-12     1.3100e-12     1.5400e-12     1.7800e-12     2.0400e-12     2.3100e-12     2.5900e-12     2.8800e-12     3.1900e-12     3.5000e-12     3.8300e-12     4.1600e-12     4.5000e-12     4.8500e-12     5.2000e-12     5.5500e-12     5.9200e-12     6.2800e-12     6.6500e-12     7.0300e-12     7.4000e-12     7.7800e-12     8.1500e-12
    9     17          0.0000     1.0800e-36     1.7600e-24     2.0200e-20     2.1900e-18     3.7300e-17     2.5100e-16     9.9800e-16     2.8500e-15     6.5100e-15     1.2700e-14     2.2300e-14     3.5700e-14     5.3500e-14     7.6200e-14     1.0400e-13     1.3700e-13     1.7500e-13     2.1900e-13     2.6700e-13     3.2200e-13     3.8100e-13     4.4400e-13     5.1300e-13     5.8600e-13     6.6400e-13     7.4600e-13     8.3100e-13     9.2100e-13     1.0100e-12     1.1100e-12     1.2100e-12     1.3100e-12     1.4200e-12     1.5300e-12     1.6400e-12     1.7500e-12     1.8700e-12     1.9800e-12     2.1000e-12     2.2200e-12
    9     18          0.0000     1.4000e-40     1.4600e-26     7.2800e-22     1.7000e-19     4.6400e-18     4.3400e-17     2.2000e-16     7.6300e-16     2.0400e-15     4.5500e-15     8.8900e-15     1.5700e-14     2.5600e-14     3.9300e-14     5.7400e-14     8.0300e-14     1.0900e-13     1.4200e-13     1.8200e-13     2.2800e-13     2.8100e-13     3.3900e-13     4.0500e-13     4.7600e-13     5.5400e-13     6.3800e-13     7.2900e-13     8.2500e-13     9.2700e-13     1.0400e-12     1.1500e-12     1.2700e-12     1.3900e-12     1.5200e-12     1.6500e-12     1.7900e-12     1.9300e-12     2.0700e-12     2.2200e-12     2.3700e-12
    9     19          0.0000     2.8000e-45     4.1900e-29     1.1200e-23     6.0700e-21     2.7400e-19     3.5700e-18     2.3000e-17     9.5100e-17     2.9200e-16     7.2800e-16     1.5600e-15     2.9700e-15     5.1700e-15     8.3900e-15     1.2800e-14     1.8700e-14     2.6300e-14     3.5700e-14     4.7000e-14     6.0500e-14     7.6200e-14     9.4200e-14     1.1500e-13     1.3700e-13     1.6300e-13     1.9000e-13     2.2000e-13     2.5300e-13     2.8800e-13     3.2500e-13     3.6400e-13     4.0600e-13     4.5000e-13     4.9600e-13     5.4300e-13     5.9300e-13     6.4400e-13     6.9700e-13     7.5000e-13     8.0500e-13
    9     20          0.0000         0.0000     1.2700e-31     2.0700e-25     2.6900e-22     2.0600e-20     3.8300e-19     3.2000e-18     1.6200e-17     5.8500e-17     1.6700e-16     4.0000e-16     8.4300e-16     1.6000e-15     2.8100e-15     4.6100e-15     7.1600e-15     1.0600e-14     1.5200e-14     2.1100e-14     2.8400e-14     3.7200e-14     4.7900e-14     6.0300e-14     7.4800e-14     9.1400e-14     1.1000e-13     1.3100e-13     1.5500e-13     1.8000e-13     2.0900e-13     2.3900e-13     2.7200e-13     3.0800e-13     3.4600e-13     3.8600e-13     4.2900e-13     4.7300e-13     5.2000e-13     5.6800e-13     6.1800e-13
    9     21          0.0000         0.0000     1.5800e-34     1.9500e-27     7.0800e-24     1.0200e-21     2.9100e-20     3.3300e-19     2.1400e-18     9.4100e-18     3.1500e-17     8.6700e-17     2.0500e-16     4.3300e-16     8.3300e-16     1.4800e-15     2.4900e-15     3.9700e-15     6.0500e-15     8.8800e-15     1.2600e-14     1.7500e-14     2.3600e-14     3.1100e-14     4.0300e-14     5.1400e-14     6.4400e-14     7.9600e-14     9.7200e-14     1.1700e-13     1.4000e-13     1.6600e-13     1.9400e-13     2.2500e-13     2.6000e-13     2.9700e-13     3.3700e-13     3.7900e-13     4.2400e-13     4.7100e-13     5.1900e-13
   10      1      4.3400e-14     4.5100e-14     4.9200e-14     5.4100e-14     6.0700e-14     6.9400e-14     8.0400e-14     9.3800e-14     1.1000e-13     1.2800e-13     1.4800e-13     1.7100e-13     1.9600e-13     2.2300e-13     2.5200e-13     2.8200e-13     3.1300e-13     3.4600e-13     3.8000e-13     4.1400e-13     4.5000e-13     4.8600e-13     5.2300e-13     5.6100e-13     5.9800e-13     6.3600e-13     6.7500e-13     7.1300e-13     7.5200e-13     7.9000e-13     8.2900e-13     8.6700e-13     9.0600e-13     9.4400e-13     9.8300e-13     1.0200e-12     1.0600e-12     1.1000e-12     1.1400e-12     1.1700e-12     1.2100e-12
   10      2      3.2500e-13     3.2000e-13     3.3300e-13     3.5400e-13     3.8100e-13     4.1300e-13     4.4900e-13     4.8800e-13     5.3000e-13     5.7500e-13     6.2200e-13     6.7000e-13     7.2000e-13     7.7100e-13     8.2400e-13     8.7800e-13     9.3100e-13     9.8500e-13     1.0400e-12     1.0900e-12     1.1500e-12     1.2000e-12     1.2600e-12     1.3100e-12     1.3600e-12     1.4200e-12     1.4700e-12     1.5300e-12     1.5800e-12     1.6300e-12     1.6800e-12     1.7300e-12     1.7800e-12     1.8300e-12     1.8800e-12     1.9300e-12     1.9800e-12     2.0300e-12     2.0800e-12     2.1200e-12     2.1700e-12
   10      3      6.1700e-13     6.5400e-13     7.4100e-13     8.3000e-13     9.3200e-13     1.0500e-12     1.1900e-12     1.3400e-12     1.5000e-12     1.6800e-12     1.8700e-12     2.0700e-12     2.2800e-12     2.5000e-12     2.7200e-12     2.9500e-12     3.1800e-12     3.4100e-12     3.6400e-12     3.8800e-12     4.1200e-12     4.3500e-12     4.5900e-12     4.8300e-12     5.0700e-12     5.3000e-12     5.5400e-12     5.7700e-12     6.0000e-12     6.2300e-12     6.4600e-12     6.6800e-12     6.9100e-12     7.1300e-12     7.3500e-12     7.5700e-12     7.7900e-12     8.0000e-12     8.2100e-12     8.4200e-12     8.6300e-12
   10      4      2.8400e-12     2.7800e-12     2.7700e-12     2.8100e-12     2.8800e-12     2.9700e-12     3.0700e-12     3.1700e-12     3.2800e-12     3.3900e-12     3.5100e-12     3.6200e-12     3.7300e-12     3.8400e-12     3.9600e-12     4.0700e-12     4.1800e-12     4.2900e-12     4.4000e-12     4.5000e-12     4.6100e-12     4.7200e-12     4.8300e-12     4.9300e-12     5.0400e-12     5.1500e-12     5.2600e-12     5.3600e-12     5.4600e-12     5.5600e-12     5.6600e-12     5.7700e-12     5.8700e-12     5.9800e-12     6.0800e-12     6.1800e-12     6.2900e-12     6.3900e-12     6.4900e-12     6.6000e-12     6.7000e-12
   10      5      6.4000e-12     6.5300e-12     7.0000e-12     7.4400e-12     7.9000e-12     8.4100e-12     8.9600e-12     9.5400e-12     1.0200e-11     1.0800e-11     1.1400e-11     1.2000e-11     1.2700e-11     1.3300e-11     1.3900e-11     1.4500e-11     1.5200e-11     1.5700e-11     1.6300e-11     1.6900e-11     1.7500e-11     1.8000e-11     1.8600e-11     1.9100e-11     1.9600e-11     2.0200e-11     2.0700e-11     2.1200e-11     2.1600e-11     2.2100e-11     2.2600e-11     2.3000e-11     2.3500e-11     2.3900e-11     2.4400e-11     2.4800e-11     2.5200e-11     2.5600e-11     2.6000e-11     2.6400e-11     2.6800e-11
   10      6      1.7700e-11     1.7800e-11     1.7500e-11     1.7100e-11     1.6900e-11     1.6700e-11     1.6600e-11     1.6500e-11     1.6500e-11     1.6500e-11     1.6600e-11     1.6600e-11     1.6600e-11     1.6800e-11     1.6900e-11     1.7000e-11     1.7100e-11     1.7200e-11     1.7300e-11     1.7500e-11     1.7600e-11     1.7800e-11     1.7900e-11     1.8100e-11     1.8300e-11     1.8500e-11     1.8700e-11     1.8900e-11     1.9000e-11     1.9200e-11     1.9400e-11     1.9600e-11     1.9800e-11     2.0000e-11     2.0200e-11     2.0400e-11     2.0600e-11     2.0800e-11     2.1000e-11     2.1200e-11     2.1500e-11
   10      7      3.0600e-11     3.2000e-11     3.4300e-11     3.5400e-11     3.6300e-11     3.7100e-11     3.7900e-11     3.8800e-11     3.9700e-11     4.0600e-11     4.1400e-11     4.2300e-11     4.3200e-11     4.4000e-11     4.4800e-11     4.5700e-11     4.6500e-11     4.7200e-11     4.7800e-11     4.8500e-11     4.9200e-11     4.9900e-11     5.0600e-11     5.1200e-11     5.1800e-11     5.2400e-11     5.3000e-11     5.3500e-11     5.4100e-11     5.4600e-11     5.5100e-11     5.5600e-11     5.6100e-11     5.6600e-11     5.7100e-11     5.7500e-11     5.8000e-11     5.8400e-11     5.8800e-11     5.9200e-11     5.9600e-11
   10      8      9.6800e-11     1.0200e-10     1.0200e-10     1.0000e-10     9.7400e-11     9.5200e-11     9.3300e-11     9.1900e-11     9.0900e-11     8.9800e-11     8.9000e-11     8.8300e-11     8.7800e-11     8.8100e-11     8.8400e-11     8.8200e-11     8.8100e-11     8.8100e-11     8.8100e-11     8.8300e-11     8.8500e-11     8.8700e-11     8.8900e-11     8.9100e-11     8.9400e-11     8.9900e-11     9.0300e-11     9.0700e-11     9.1000e-11     9.1300e-11     9.1600e-11     9.2000e-11     9.2300e-11     9.2600e-11     9.3000e-11     9.3400e-11     9.3800e-11     9.4200e-11     9.4700e-11     9.5200e-11     9.5600e-11
   10      9      6.0900e-11     7.2500e-11     8.4600e-11     8.8000e-11     8.8600e-11     8.8600e-11     8.8500e-11     8.8400e-11     8.8300e-11     8.8500e-11     8.8600e-11     8.8900e-11     8.9300e-11     8.9600e-11     8.9800e-11     9.0100e-11     9.0600e-11     9.1200e-11     9.1700e-11     9.1900e-11     9.2000e-11     9.2200e-11     9.2600e-11     9.3000e-11     9.3500e-11     9.4100e-11     9.4600e-11     9.5100e-11     9.5500e-11     9.5900e-11     9.6200e-11     9.6600e-11     9.6900e-11     9.7300e-11     9.7600e-11     9.7900e-11     9.8200e-11     9.8500e-11     9.8700e-11     9.8900e-11     9.9100e-11
   10     10      6.7800e-10     6.9300e-10     8.7700e-10     1.1000e-09     1.3200e-09     1.5000e-09     1.6600e-09     1.7900e-09     1.9000e-09     2.0000e-09     2.0900e-09     2.1600e-09     2.2200e-09     2.2800e-09     2.3300e-09     2.3800e-09     2.4100e-09     2.4500e-09     2.4800e-09     2.5100e-09     2.5400e-09     2.5600e-09     2.5800e-09     2.6000e-09     2.6100e-09     2.6300e-09     2.6500e-09     2.6600e-09     2.6700e-09     2.6800e-09     2.6900e-09     2.7000e-09     2.7100e-09     2.7200e-09     2.7200e-09     2.7300e-09     2.7400e-09     2.7400e-09     2.7500e-09     2.7500e-09     2.7600e-09
   10     11      1.0700e-15     3.2500e-13     5.8700e-12     1.5300e-11     2.4600e-11     3.2600e-11     3.9200e-11     4.4800e-11     4.9500e-11     5.3600e-11     5.7200e-11     6.0300e-11     6.3100e-11     6.5700e-11     6.8000e-11     7.0000e-11     7.2000e-11     7.3900e-11     7.5600e-11     7.7100e-11     7.8500e-11     7.9800e-11     8.0900e-11     8.2000e-11     8.3100e-11     8.4300e-11     8.5400e-11     8.6400e-11     8.7500e-11     8.8500e-11     8.9400e-11     9.0200e-11     9.1100e-11     9.1900e-11     9.2600e-11     9.3400e-11     9.4100e-11     9.4800e-11     9.5500e-11     9.6100e-11     9.6800e-11
   10     12      8.1700e-21     9.9300e-16     3.4500e-13     2.3800e-12     6.1700e-12     1.0800e-11     1.5700e-11     2.0500e-11     2.4900e-11     2.9000e-11     3.2800e-11     3.6300e-11     3.9500e-11     4.2500e-11     4.5300e-11     4.7800e-11     5.0300e-11     5.2500e-11     5.4700e-11     5.6700e-11     5.8600e-11     6.0500e-11     6.2200e-11     6.3900e-11     6.5600e-11     6.7100e-11     6.8600e-11     7.0100e-11     7.1500e-11     7.2800e-11     7.4100e-11     7.5400e-11     7.6600e-11     7.7800e-11     7.9000e-11     8.0100e-11     8.1200e-11     8.2300e-11     8.3300e-11     8.4300e-11     8.5300e-11
   10     13      2.6600e-27     5.4500e-19     6.4100e-15     1.4100e-13     6.5700e-13     1.6600e-12     3.0900e-12     4.8400e-12     6.8000e-12     8.8800e-12     1.1000e-11     1.3200e-11     1.5300e-11     1.7400e-11     1.9500e-11     2.1500e-11     2.3500e-11     2.5400e-11     2.7200e-11     2.9000e-11     3.0700e-11     3.2300e-11     3.3900e-11     3.5500e-11     3.7000e-11     3.8400e-11     3.9800e-11     4.1100e-11     4.2500e-11     4.3700e-11     4.4900e-11     4.6100e-11     4.7300e-11     4.8400e-11     4.9500e-11     5.0500e-11     5.1500e-11     5.2500e-11     5.3500e-11     5.4400e-11     5.5300e-11
   10     14      3.6400e-34     1.3400e-22     6.6300e-17     4.9600e-15     4.2300e-14     1.5200e-13     3.5500e-13     6.5200e-13     1.0300e-12     1.4600e-12     1.9400e-12     2.4600e-12     2.9900e-12     3.5300e-12     4.0800e-12     4.6300e-12     5.1700e-12     5.7200e-12     6.2600e-12     6.7900e-12     7.3200e-12     7.8500e-12     8.3600e-12     8.8700e-12     9.3800e-12     9.8800e-12     1.0400e-11     1.0900e-11     1.1400e-11     1.1800e-11     1.2300e-11     1.2800e-11     1.3200e-11     1.3700e-11     1.4200e-11     1.4600e-11     1.5100e-11     1.5500e-11     1.6000e-11     1.6400e-11     1.6800e-11
   10     15      9.7200e-41     6.5000e-26     1.3800e-18     3.7000e-16     6.1100e-15     3.3300e-14     1.0400e-13     2.3800e-13     4.4700e-13     7.3400e-13     1.1000e-12     1.5300e-12     2.0300e-12     2.5900e-12     3.2000e-12     3.8500e-12     4.5400e-12     5.2600e-12     6.0000e-12     6.7700e-12     7.5500e-12     8.3400e-12     9.1400e-12     9.9500e-12     1.0800e-11     1.1600e-11     1.2400e-11     1.3200e-11     1.4000e-11     1.4800e-11     1.5600e-11     1.6400e-11     1.7200e-11     1.8000e-11     1.8800e-11     1.9500e-11     2.0300e-11     2.1100e-11     2.1800e-11     2.2500e-11     2.3300e-11
   10     16          0.0000     6.9400e-30     7.2300e-21     7.3300e-18     2.3600e-16     1.9100e-15     7.7500e-15     2.1200e-14     4.5500e-14     8.2800e-14     1.3400e-13     2.0000e-13     2.7900e-13     3.7200e-13     4.7700e-13     5.9300e-13     7.1800e-13     8.5200e-13     9.9400e-13     1.1400e-12     1.3000e-12     1.4600e-12     1.6200e-12     1.7900e-12     1.9600e-12     2.1400e-12     2.3200e-12     2.5000e-12     2.6800e-12     2.8700e-12     3.0500e-12     3.2400e-12     3.4300e-12     3.6200e-12     3.8100e-12     4.0000e-12     4.2000e-12     4.3900e-12     4.5900e-12     4.7800e-12     4.9700e-12
   10     17          0.0000     4.9600e-34     6.6300e-23     3.3100e-19     2.3700e-17     3.1500e-16     1.8000e-15     6.3800e-15     1.6700e-14     3.5600e-14     6.6100e-14     1.1000e-13     1.7000e-13     2.4800e-13     3.4300e-13     4.5600e-13     5.8700e-13     7.3600e-13     9.0300e-13     1.0900e-12     1.2900e-12     1.5000e-12     1.7300e-12     1.9700e-12     2.2200e-12     2.4900e-12     2.7600e-12     3.0400e-12     3.3400e-12     3.6400e-12     3.9500e-12     4.2600e-12     4.5800e-12     4.9000e-12     5.2300e-12     5.5700e-12     5.9000e-12     6.2400e-12     6.5900e-12     6.9300e-12     7.2700e-12
   10     18          0.0000     2.9000e-38     2.5200e-25     5.4200e-21     8.1700e-19     1.6900e-17     1.3100e-16     5.7100e-16     1.7500e-15     4.2400e-15     8.7000e-15     1.5800e-14     2.6100e-14     4.0200e-14     5.8600e-14     8.1500e-14     1.0900e-13     1.4200e-13     1.8000e-13     2.2200e-13     2.7000e-13     3.2300e-13     3.8000e-13     4.4200e-13     5.0900e-13     5.7900e-13     6.5400e-13     7.3300e-13     8.1500e-13     9.0100e-13     9.9000e-13     1.0800e-12     1.1800e-12     1.2700e-12     1.3700e-12     1.4800e-12     1.5800e-12     1.6900e-12     1.7900e-12     1.9000e-12     2.0100e-12
   10     19          0.0000     1.1600e-42     1.3200e-27     1.5300e-22     5.4200e-20     1.9000e-18     2.1000e-17     1.1900e-16     4.5000e-16     1.2800e-15     3.0200e-15     6.1400e-15     1.1200e-14     1.8800e-14     2.9600e-14     4.4000e-14     6.2600e-14     8.5800e-14     1.1400e-13     1.4700e-13     1.8700e-13     2.3100e-13     2.8200e-13     3.3900e-13     4.0100e-13     4.7000e-13     5.4400e-13     6.2400e-13     7.1100e-13     8.0300e-13     9.0000e-13     1.0000e-12     1.1100e-12     1.2300e-12     1.3500e-12     1.4700e-12     1.6000e-12     1.7300e-12     1.8700e-12     2.0000e-12     2.1500e-12
   10     20          0.0000         0.0000     2.6000e-30     1.8300e-24     1.5500e-21     9.0600e-20     1.4000e-18     1.0200e-17     4.6200e-17     1.5200e-16     4.0300e-16     9.0600e-16     1.8000e-15     3.2600e-15     5.4600e-15     8.6000e-15     1.2900e-14     1.8600e-14     2.5800e-14     3.4700e-14     4.5600e-14     5.8500e-14     7.3600e-14     9.1100e-14     1.1100e-13     1.3300e-13     1.5800e-13     1.8600e-13     2.1600e-13     2.4900e-13     2.8500e-13     3.2300e-13     3.6400e-13     4.0700e-13     4.5300e-13     5.0200e-13     5.5200e-13     6.0500e-13     6.5900e-13     7.1500e-13     7.7200e-13
   10     21          0.0000         0.0000     4.4500e-33     2.3900e-26     5.7000e-23     6.3100e-21     1.5200e-19     1.5200e-18     8.8800e-18     3.5900e-17     1.1200e-16     2.9000e-16     6.5200e-16     1.3100e-15     2.4200e-15     4.1400e-15     6.7000e-15     1.0300e-14     1.5200e-14     2.1700e-14     3.0000e-14     4.0400e-14     5.3200e-14     6.8500e-14     8.6700e-14     1.0800e-13     1.3300e-13     1.6100e-13     1.9200e-13     2.2800e-13     2.6700e-13     3.1000e-13     3.5800e-13     4.0900e-13     4.6400e-13     5.2400e-13     5.8600e-13     6.5300e-13     7.2200e-13     7.9400e-13     8.6700e-13
   11      1      3.0800e-14     3.3300e-14     3.5700e-14     3.9000e-14     4.3200e-14     4.8200e-14     5.4000e-14     6.0500e-14     6.7800e-14     7.5800e-14     8.4500e-14     9.3800e-14     1.0400e-13     1.1400e-13     1.2500e-13     1.3700e-13     1.4900e-13     1.6100e-13     1.7400e-13     1.8700e-13     2.0000e-13     2.1300e-13     2.2700e-13     2.4100e-13     2.5500e-13     2.6900e-13     2.8400e-13     2.9800e-13     3.1300e-13     3.2700e-13     3.4100e-13     3.5600e-13     3.7000e-13     3.8500e-13     3.9900e-13     4.1300e-13     4.2800e-13     4.4200e-13     4.5600e-13     4.7000e-13     4.8400e-13
   11      2      8.3600e-14     9.4700e-14     1.0500e-13     1.1600e-13     1.3000e-13     1.4900e-13     1.7100e-13     1.9800e-13     2.2900e-13     2.6500e-13     3.0500e-13     3.4900e-13     3.9700e-13     4.4900e-13     5.0500e-13     5.6400e-13     6.2500e-13     6.9000e-13     7.5600e-13     8.2500e-13     8.9600e-13     9.6900e-13     1.0400e-12     1.1200e-12     1.1900e-12     1.2700e-12     1.3500e-12     1.4300e-12     1.5100e-12     1.5900e-12     1.6700e-12     1.7500e-12     1.8300e-12     1.9100e-12     1.9900e-12     2.0700e-12     2.1500e-12     2.2300e-12     2.3100e-12     2.3900e-12     2.4600e-12
   11      3      3.9900e-13     4.2900e-13     4.4600e-13     4.7100e-13     5.0400e-13     5.4200e-13     5.8500e-13     6.3300e-13     6.8400e-13     7.3900e-13     7.9600e-13     8.5500e-13     9.1600e-13     9.7900e-13     1.0400e-12     1.1100e-12     1.1700e-12     1.2400e-12     1.3100e-12     1.3800e-12     1.4500e-12     1.5100e-12     1.5800e-12     1.6500e-12     1.7200e-12     1.7900e-12     1.8600e-12     1.9300e-12     2.0000e-12     2.0700e-12     2.1300e-12     2.2000e-12     2.2700e-12     2.3300e-12     2.4000e-12     2.4700e-12     2.5300e-12     2.6000e-12     2.6600e-12     2.7300e-12     2.7900e-12
   11      4      8.5200e-13     9.5300e-13     1.0500e-12     1.1600e-12     1.2800e-12     1.4200e-12     1.5900e-12     1.7600e-12     1.9600e-12     2.1700e-12     2.3900e-12     2.6100e-12     2.8500e-12     3.0900e-12     3.3400e-12     3.5900e-12     3.8500e-12     4.1100e-12     4.3700e-12     4.6300e-12     4.8900e-12     5.1500e-12     5.4100e-12     5.6700e-12     5.9300e-12     6.1900e-12     6.4500e-12     6.7000e-12     6.9500e-12     7.2000e-12     7.4500e-12     7.7000e-12     7.9400e-12     8.1800e-12     8.4200e-12     8.6600e-12     8.9000e-12     9.1300e-12     9.3700e-12     9.6000e-12     9.8200e-12
   11      5      2.8500e-12     3.0800e-12     3.1300e-12     3.1700e-12     3.2400e-12     3.3300e-12     3.4200e-12     3.5300e-12     3.6400e-12     3.7500e-12     3.8600e-12     3.9800e-12     4.0900e-12     4.2000e-12     4.3100e-12     4.4300e-12     4.5400e-12     4.6500e-12     4.7600e-12     4.8600e-12     4.9700e-12     5.0800e-12     5.1900e-12     5.3000e-12     5.4100e-12     5.5200e-12     5.6300e-12     5.7400e-12     5.8500e-12     5.9500e-12     6.0600e-12     6.1600e-12     6.2700e-12     6.3700e-12     6.4800e-12     6.5900e-12     6.6900e-12     6.8000e-12     6.9100e-12     7.0200e-12     7.1300e-12
   11      6      7.5100e-12     8.1900e-12     8.6300e-12     9.0600e-12     9.5400e-12     1.0100e-11     1.0600e-11     1.1200e-11     1.1900e-11     1.2500e-11     1.3200e-11     1.3800e-11     1.4400e-11     1.5100e-11     1.5700e-11     1.6300e-11     1.7000e-11     1.7600e-11     1.8200e-11     1.8700e-11     1.9300e-11     1.9900e-11     2.0400e-11     2.1000e-11     2.1500e-11     2.2000e-11     2.2500e-11     2.3000e-11     2.3500e-11     2.4000e-11     2.4400e-11     2.4900e-11     2.5300e-11     2.5800e-11     2.6200e-11     2.6600e-11     2.7000e-11     2.7500e-11     2.7900e-11     2.8300e-11     2.8700e-11
   11      7      1.6200e-11     1.7900e-11     1.8100e-11     1.7800e-11     1.7600e-11     1.7400e-11     1.7300e-11     1.7200e-11     1.7100e-11     1.7100e-11     1.7100e-11     1.7100e-11     1.7200e-11     1.7200e-11     1.7300e-11     1.7400e-11     1.7500e-11     1.7600e-11     1.7700e-11     1.7900e-11     1.8000e-11     1.8200e-11     1.8300e-11     1.8500e-11     1.8700e-11     1.8800e-11     1.9000e-11     1.9200e-11     1.9400e-11     1.9600e-11     1.9800e-11     2.0000e-11     2.0200e-11     2.0300e-11     2.0500e-11     2.0700e-11     2.0900e-11     2.1200e-11     2.1400e-11     2.1600e-11     2.1800e-11
   11      8      3.2900e-11     3.6400e-11     3.8200e-11     3.9200e-11     4.0000e-11     4.0800e-11     4.1600e-11     4.2400e-11     4.3300e-11     4.4100e-11     4.4900e-11     4.5700e-11     4.6500e-11     4.7300e-11     4.8100e-11     4.8800e-11     4.9600e-11     5.0300e-11     5.1000e-11     5.1600e-11     5.2200e-11     5.2900e-11     5.3400e-11     5.4000e-11     5.4600e-11     5.5100e-11     5.5700e-11     5.6200e-11     5.6700e-11     5.7200e-11     5.7700e-11     5.8100e-11     5.8600e-11     5.9000e-11     5.9400e-11     5.9900e-11     6.0300e-11     6.0700e-11     6.1100e-11     6.1600e-11     6.2000e-11
   11      9      8.5100e-11     9.7500e-11     1.0100e-10     9.8800e-11     9.6600e-11     9.4600e-11     9.2800e-11     9.1400e-11     9.0300e-11     8.9400e-11     8.8700e-11     8.8200e-11     8.7800e-11     8.7500e-11     8.7400e-11     8.7300e-11     8.7300e-11     8.7400e-11     8.7500e-11     8.7600e-11     8.7900e-11     8.8100e-11     8.8400e-11     8.8700e-11     8.9000e-11     8.9400e-11     8.9700e-11     9.0100e-11     9.0400e-11     9.0700e-11     9.1100e-11     9.1400e-11     9.1800e-11     9.2100e-11     9.2500e-11     9.2800e-11     9.3200e-11     9.3600e-11     9.4100e-11     9.4500e-11     9.4900e-11
   11     10      6.1400e-11     7.4100e-11     8.4300e-11     8.7600e-11     8.8700e-11     8.9000e-11     8.9200e-11     8.9300e-11     8.9500e-11     8.9700e-11     8.9900e-11     9.0200e-11     9.0500e-11     9.0900e-11     9.1300e-11     9.1600e-11     9.2000e-11     9.2500e-11     9.3000e-11     9.3300e-11     9.3600e-11     9.3900e-11     9.4100e-11     9.4400e-11     9.4700e-11     9.5100e-11     9.5500e-11     9.6000e-11     9.6400e-11     9.6800e-11     9.7200e-11     9.7600e-11     9.7900e-11     9.8300e-11     9.8600e-11     9.8900e-11     9.9200e-11     9.9600e-11     9.9900e-11     1.0000e-10     1.0100e-10
   11     11      6.3100e-10     6.9300e-10     8.8400e-10     1.1100e-09     1.3200e-09     1.5100e-09     1.6600e-09     1.8000e-09     1.9100e-09     2.0100e-09     2.0900e-09     2.1700e-09     2.2300e-09     2.2900e-09     2.3400e-09     2.3800e-09     2.4200e-09     2.4500e-09     2.4800e-09     2.5100e-09     2.5400e-09     2.5600e-09     2.5800e-09     2.6000e-09     2.6200e-09     2.6300e-09     2.6500e-09     2.6600e-09     2.6700e-09     2.6900e-09     2.6900e-09     2.7000e-09     2.7100e-09     2.7200e-09     2.7300e-09     2.7300e-09     2.7400e-09     2.7400e-09     2.7500e-09     2.7600e-09     2.7600e-09
   11     12      3.9000e-16     1.9300e-13     4.4700e-12     1.2800e-11     2.1500e-11     2.9400e-11     3.6100e-11     4.1900e-11     4.6800e-11     5.1100e-11     5.4800e-11     5.8100e-11     6.1100e-11     6.3800e-11     6.6200e-11     6.8400e-11     7.0400e-11     7.2300e-11     7.4000e-11     7.5700e-11     7.7100e-11     7.8500e-11     7.9900e-11     8.1100e-11     8.2300e-11     8.3400e-11     8.4500e-11     8.5500e-11     8.6500e-11     8.7400e-11     8.8300e-11     8.9200e-11     9.0100e-11     9.0900e-11     9.1700e-11     9.2400e-11     9.3200e-11     9.3900e-11     9.4500e-11     9.5200e-11     9.5900e-11
   11     13      2.9900e-22     2.4600e-16     1.8300e-13     1.5600e-12     4.4800e-12     8.3600e-12     1.2600e-11     1.6900e-11     2.1000e-11     2.4900e-11     2.8500e-11     3.1800e-11     3.5000e-11     3.7900e-11     4.0600e-11     4.3100e-11     4.5500e-11     4.7800e-11     5.0000e-11     5.2000e-11     5.3900e-11     5.5800e-11     5.7600e-11     5.9300e-11     6.0900e-11     6.2500e-11     6.4000e-11     6.5500e-11     6.6900e-11     6.8300e-11     6.9600e-11     7.0900e-11     7.2100e-11     7.3300e-11     7.4500e-11     7.5700e-11     7.6800e-11     7.7900e-11     7.9000e-11     8.0000e-11     8.1000e-11
   11     14      5.9500e-29     8.6000e-20     2.6400e-15     7.9100e-14     4.3100e-13     1.2000e-12     2.3700e-12     3.8700e-12     5.6100e-12     7.5000e-12     9.4900e-12     1.1500e-11     1.3600e-11     1.5600e-11     1.7600e-11     1.9600e-11     2.1500e-11     2.3400e-11     2.5200e-11     2.6900e-11     2.8600e-11     3.0300e-11     3.1900e-11     3.3400e-11     3.4900e-11     3.6300e-11     3.7700e-11     3.9100e-11     4.0400e-11     4.1600e-11     4.2900e-11     4.4100e-11     4.5200e-11     4.6300e-11     4.7400e-11     4.8500e-11     4.9500e-11     5.0500e-11     5.1500e-11     5.2400e-11     5.3300e-11
   11     15      6.2200e-36     1.6700e-23     2.2700e-17     2.3900e-15     2.4100e-14     9.6200e-14     2.4100e-13     4.6500e-13     7.6100e-13     1.1200e-12     1.5200e-12     1.9600e-12     2.4200e-12     2.8900e-12     3.3800e-12     3.8800e-12     4.3800e-12     4.8800e-12     5.3800e-12     5.8700e-12     6.3700e-12     6.8600e-12     7.3400e-12     7.8200e-12     8.3000e-12     8.7800e-12     9.2500e-12     9.7200e-12     1.0200e-11     1.0600e-11     1.1100e-11     1.1500e-11     1.2000e-11     1.2400e-11     1.2900e-11     1.3300e-11     1.3700e-11     1.4200e-11     1.4600e-11     1.5000e-11     1.5400e-11
   11     16      1.2000e-42     6.3100e-27     4.0600e-19     1.6300e-16     3.3100e-15     2.0500e-14     6.9800e-14     1.7000e-13     3.3200e-13     5.6500e-13     8.6800e-13     1.2400e-12     1.6800e-12     2.1700e-12     2.7100e-12     3.3000e-12     3.9300e-12     4.5900e-12     5.2700e-12     5.9800e-12     6.7100e-12     7.4500e-12     8.2100e-12     8.9700e-12     9.7400e-12     1.0500e-11     1.1300e-11     1.2100e-11     1.2800e-11     1.3600e-11     1.4400e-11     1.5100e-11     1.5900e-11     1.6600e-11     1.7400e-11     1.8100e-11     1.8900e-11     1.9600e-11     2.0300e-11     2.1000e-11     2.1700e-11
   11     17          0.0000     1.3200e-31     1.1100e-21     2.1700e-18     9.5800e-17     9.3300e-16     4.2900e-15     1.2800e-14     2.9300e-14     5.5900e-14     9.4200e-14     1.4500e-13     2.0800e-13     2.8300e-13     3.7000e-13     4.6800e-13     5.7500e-13     6.9100e-13     8.1600e-13     9.4800e-13     1.0900e-12     1.2300e-12     1.3800e-12     1.5400e-12     1.7000e-12     1.8600e-12     2.0300e-12     2.2000e-12     2.3800e-12     2.5500e-12     2.7300e-12     2.9200e-12     3.1000e-12     3.2900e-12     3.4800e-12     3.6800e-12     3.8700e-12     4.0700e-12     4.2600e-12     4.4600e-12     4.6600e-12
   11     18          0.0000     2.4000e-35     1.2900e-23     1.1000e-19     1.0400e-17     1.6300e-16     1.0500e-15     4.0100e-15     1.1200e-14     2.5000e-14     4.8100e-14     8.2900e-14     1.3100e-13     1.9500e-13     2.7500e-13     3.7200e-13     4.8700e-13     6.1800e-13     7.6700e-13     9.3200e-13     1.1100e-12     1.3100e-12     1.5200e-12     1.7500e-12     1.9800e-12     2.2300e-12     2.4900e-12     2.7700e-12     3.0500e-12     3.3400e-12     3.6400e-12     3.9400e-12     4.2600e-12     4.5800e-12     4.9000e-12     5.2300e-12     5.5700e-12     5.9000e-12     6.2400e-12     6.5900e-12     6.9300e-12
   11     19          0.0000     3.8800e-40     2.8000e-26     1.2800e-21     2.8200e-19     7.3300e-18     6.5500e-17     3.1900e-16     1.0600e-15     2.7300e-15     5.8700e-15     1.1100e-14     1.8900e-14     3.0000e-14     4.4700e-14     6.3300e-14     8.6200e-14     1.1400e-13     1.4500e-13     1.8200e-13     2.2300e-13     2.6800e-13     3.1700e-13     3.7100e-13     4.2900e-13     4.9000e-13     5.5500e-13     6.2300e-13     6.9500e-13     7.6900e-13     8.4600e-13     9.2600e-13     1.0100e-12     1.0900e-12     1.1800e-12     1.2700e-12     1.3600e-12     1.4500e-12     1.5400e-12     1.6300e-12     1.7300e-12
   11     20          0.0000     4.2000e-45     1.1100e-28     3.0800e-23     1.6400e-20     7.2400e-19     9.2800e-18     5.8700e-17     2.3900e-16     7.2400e-16     1.7800e-15     3.7800e-15     7.1300e-15     1.2300e-14     1.9800e-14     3.0100e-14     4.3700e-14     6.0900e-14     8.2200e-14     1.0800e-13     1.3800e-13     1.7300e-13     2.1300e-13     2.5800e-13     3.0900e-13     3.6400e-13     4.2500e-13     4.9100e-13     5.6100e-13     6.3700e-13     7.1800e-13     8.0400e-13     8.9400e-13     9.8900e-13     1.0900e-12     1.1900e-12     1.3000e-12     1.4100e-12     1.5200e-12     1.6400e-12     1.7600e-12
   11     21          0.0000         0.0000     1.0900e-31     2.3200e-25     3.4600e-22     2.8900e-20     5.7200e-19     4.9900e-18     2.6100e-17     9.6600e-17     2.8100e-16     6.8700e-16     1.4700e-15     2.8200e-15     5.0000e-15     8.3000e-15     1.3000e-14     1.9500e-14     2.8200e-14     3.9300e-14     5.3300e-14     7.0500e-14     9.1200e-14     1.1600e-13     1.4500e-13     1.7800e-13     2.1600e-13     2.5900e-13     3.0700e-13     3.6000e-13     4.1900e-13     4.8300e-13     5.5300e-13     6.2800e-13     7.0900e-13     7.9400e-13     8.8400e-13     9.7900e-13     1.0800e-12     1.1800e-12     1.2800e-12
   12      1      1.3000e-14     1.3400e-14     1.4000e-14     1.5100e-14     1.6600e-14     1.8500e-14     2.1000e-14     2.4200e-14     2.7900e-14     3.2400e-14     3.7600e-14     4.3500e-14     5.0200e-14     5.7600e-14     6.5800e-14     7.4700e-14     8.4400e-14     9.4600e-14     1.0600e-13     1.1700e-13     1.2900e-13     1.4200e-13     1.5500e-13     1.6800e-13     1.8200e-13     1.9700e-13     2.1100e-13     2.2600e-13     2.4100e-13     2.5700e-13     2.7200e-13     2.8800e-13     3.0400e-13     3.2000e-13     3.3600e-13     3.5200e-13     3.6900e-13     3.8500e-13     4.0200e-13     4.1800e-13     4.3500e-13
   12      2      6.8000e-14     6.9600e-14     7.2900e-14     7.9000e-14     8.6900e-14     9.6600e-14     1.0800e-13     1.2100e-13     1.3500e-13     1.5100e-13     1.6900e-13     1.8800e-13     2.0800e-13     2.2900e-13     2.5200e-13     2.7600e-13     3.0100e-13     3.2700e-13     3.5400e-13     3.8200e-13     4.1100e-13     4.4000e-13     4.7000e-13     5.0100e-13     5.3200e-13     5.6400e-13     5.9600e-13     6.2900e-13     6.6200e-13     6.9500e-13     7.2800e-13     7.6200e-13     7.9500e-13     8.2900e-13     8.6300e-13     8.9700e-13     9.3100e-13     9.6400e-13     9.9800e-13     1.0300e-12     1.0700e-12
   12      3      1.2900e-13     1.3900e-13     1.5300e-13     1.7000e-13     1.9100e-13     2.1700e-13     2.4800e-13     2.8500e-13     3.2700e-13     3.7400e-13     4.2700e-13     4.8400e-13     5.4700e-13     6.1300e-13     6.8400e-13     7.5800e-13     8.3600e-13     9.1700e-13     1.0000e-12     1.0900e-12     1.1800e-12     1.2700e-12     1.3600e-12     1.4500e-12     1.5500e-12     1.6400e-12     1.7400e-12     1.8400e-12     1.9400e-12     2.0400e-12     2.1400e-12     2.2400e-12     2.3400e-12     2.4400e-12     2.5400e-12     2.6400e-12     2.7400e-12     2.8400e-12     2.9400e-12     3.0400e-12     3.1400e-12
   12      4      5.3300e-13     5.4500e-13     5.6000e-13     5.8600e-13     6.2200e-13     6.6400e-13     7.1200e-13     7.6500e-13     8.2200e-13     8.8200e-13     9.4500e-13     1.0100e-12     1.0800e-12     1.1500e-12     1.2200e-12     1.2900e-12     1.3600e-12     1.4400e-12     1.5100e-12     1.5900e-12     1.6700e-12     1.7400e-12     1.8200e-12     1.9000e-12     1.9700e-12     2.0500e-12     2.1300e-12     2.2000e-12     2.2800e-12     2.3600e-12     2.4300e-12     2.5100e-12     2.5800e-12     2.6600e-12     2.7300e-12     2.8100e-12     2.8800e-12     2.9500e-12     3.0300e-12     3.1000e-12     3.1700e-12
   12      5      1.3000e-12     1.3600e-12     1.4400e-12     1.5500e-12     1.6900e-12     1.8600e-12     2.0400e-12     2.2400e-12     2.4600e-12     2.6900e-12     2.9300e-12     3.1800e-12     3.4400e-12     3.7100e-12     3.9800e-12     4.2500e-12     4.5300e-12     4.8100e-12     5.0900e-12     5.3700e-12     5.6400e-12     5.9200e-12     6.2000e-12     6.4800e-12     6.7500e-12     7.0200e-12     7.2900e-12     7.5600e-12     7.8300e-12     8.0900e-12     8.3600e-12     8.6200e-12     8.8700e-12     9.1300e-12     9.3800e-12     9.6300e-12     9.8800e-12     1.0100e-11     1.0400e-11     1.0600e-11     1.0800e-11
   12      6      3.2900e-12     3.4100e-12     3.4500e-12     3.5000e-12     3.5700e-12     3.6500e-12     3.7400e-12     3.8400e-12     3.9500e-12     4.0600e-12     4.1700e-12     4.2800e-12     4.4000e-12     4.5100e-12     4.6200e-12     4.7300e-12     4.8400e-12     4.9500e-12     5.0600e-12     5.1800e-12     5.2900e-12     5.4000e-12     5.5100e-12     5.6200e-12     5.7300e-12     5.8300e-12     5.9400e-12     6.0500e-12     6.1600e-12     6.2700e-12     6.3800e-12     6.4900e-12     6.6000e-12     6.7100e-12     6.8200e-12     6.9200e-12     7.0300e-12     7.1400e-12     7.2500e-12     7.3600e-12     7.4700e-12
   12      7      9.8700e-12     1.0200e-11     1.0400e-11     1.0800e-11     1.1300e-11     1.1800e-11     1.2400e-11     1.3000e-11     1.3600e-11     1.4300e-11     1.4900e-11     1.5600e-11     1.6200e-11     1.6900e-11     1.7500e-11     1.8100e-11     1.8700e-11     1.9400e-11     2.0000e-11     2.0500e-11     2.1100e-11     2.1700e-11     2.2200e-11     2.2800e-11     2.3300e-11     2.3800e-11     2.4300e-11     2.4800e-11     2.5300e-11     2.5700e-11     2.6200e-11     2.6700e-11     2.7100e-11     2.7500e-11     2.8000e-11     2.8400e-11     2.8800e-11     2.9200e-11     2.9600e-11     3.0000e-11     3.0400e-11
   12      8      1.6900e-11     1.7900e-11     1.8200e-11     1.8100e-11     1.7900e-11     1.7700e-11     1.7600e-11     1.7500e-11     1.7400e-11     1.7400e-11     1.7400e-11     1.7400e-11     1.7400e-11     1.7500e-11     1.7500e-11     1.7600e-11     1.7700e-11     1.7800e-11     1.8000e-11     1.8100e-11     1.8200e-11     1.8400e-11     1.8500e-11     1.8700e-11     1.8900e-11     1.9100e-11     1.9200e-11     1.9400e-11     1.9600e-11     1.9800e-11     2.0000e-11     2.0200e-11     2.0400e-11     2.0600e-11     2.0800e-11     2.1000e-11     2.1200e-11     2.1400e-11     2.1700e-11     2.1900e-11     2.2100e-11
   12      9      3.9200e-11     4.1000e-11     4.2000e-11     4.2900e-11     4.3600e-11     4.4400e-11     4.5100e-11     4.5900e-11     4.6700e-11     4.7500e-11     4.8200e-11     4.9000e-11     4.9700e-11     5.0500e-11     5.1200e-11     5.1900e-11     5.2600e-11     5.3200e-11     5.3900e-11     5.4500e-11     5.5100e-11     5.5700e-11     5.6200e-11     5.6800e-11     5.7300e-11     5.7800e-11     5.8300e-11     5.8800e-11     5.9300e-11     5.9700e-11     6.0200e-11     6.0600e-11     6.1100e-11     6.1500e-11     6.1900e-11     6.2300e-11     6.2700e-11     6.3000e-11     6.3400e-11     6.3800e-11     6.4100e-11
   12     10      8.1900e-11     9.0400e-11     9.4600e-11     9.4200e-11     9.2800e-11     9.1300e-11     8.9900e-11     8.8800e-11     8.7900e-11     8.7200e-11     8.6600e-11     8.6200e-11     8.5900e-11     8.5800e-11     8.5700e-11     8.5700e-11     8.5800e-11     8.5900e-11     8.6100e-11     8.6300e-11     8.6500e-11     8.6800e-11     8.7200e-11     8.7500e-11     8.7800e-11     8.8200e-11     8.8600e-11     8.9000e-11     8.9400e-11     8.9800e-11     9.0100e-11     9.0600e-11     9.1000e-11     9.1400e-11     9.1800e-11     9.2200e-11     9.2600e-11     9.3000e-11     9.3400e-11     9.3800e-11     9.4200e-11
   12     11      6.8100e-11     7.7200e-11     8.5300e-11     8.8500e-11     8.9800e-11     9.0500e-11     9.0800e-11     9.1100e-11     9.1400e-11     9.1600e-11     9.1900e-11     9.2300e-11     9.2600e-11     9.2900e-11     9.3300e-11     9.3700e-11     9.4000e-11     9.4400e-11     9.4800e-11     9.5100e-11     9.5500e-11     9.5800e-11     9.6100e-11     9.6500e-11     9.6800e-11     9.7100e-11     9.7400e-11     9.7800e-11     9.8100e-11     9.8400e-11     9.8800e-11     9.9100e-11     9.9400e-11     9.9800e-11     1.0000e-10     1.0000e-10     1.0100e-10     1.0100e-10     1.0100e-10     1.0200e-10     1.0200e-10
   12     12      6.5800e-10     6.8900e-10     8.7500e-10     1.1100e-09     1.3200e-09     1.5000e-09     1.6600e-09     1.7900e-09     1.9100e-09     2.0100e-09     2.0900e-09     2.1700e-09     2.2300e-09     2.2900e-09     2.3400e-09     2.3800e-09     2.4200e-09     2.4500e-09     2.4900e-09     2.5100e-09     2.5400e-09     2.5600e-09     2.5800e-09     2.6000e-09     2.6200e-09     2.6300e-09     2.6500e-09     2.6600e-09     2.6700e-09     2.6900e-09     2.7000e-09     2.7000e-09     2.7100e-09     2.7200e-09     2.7300e-09     2.7300e-09     2.7400e-09     2.7500e-09     2.7500e-09     2.7600e-09     2.7600e-09
   12     13      5.3000e-17     1.0000e-13     3.6800e-12     1.1700e-11     2.0600e-11     2.8800e-11     3.5800e-11     4.1800e-11     4.6900e-11     5.1300e-11     5.5100e-11     5.8500e-11     6.1500e-11     6.4200e-11     6.6600e-11     6.8900e-11     7.0900e-11     7.2800e-11     7.4500e-11     7.6100e-11     7.7600e-11     7.9000e-11     8.0300e-11     8.1600e-11     8.2800e-11     8.3900e-11     8.5000e-11     8.6000e-11     8.6900e-11     8.7900e-11     8.8800e-11     8.9600e-11     9.0400e-11     9.1200e-11     9.2000e-11     9.2700e-11     9.3500e-11     9.4200e-11     9.4800e-11     9.5400e-11     9.6000e-11
   12     14      1.7600e-23     5.9000e-17     8.8600e-14     9.5700e-13     3.0900e-12     6.1700e-12     9.7600e-12     1.3500e-11     1.7200e-11     2.0800e-11     2.4200e-11     2.7400e-11     3.0400e-11     3.3200e-11     3.5900e-11     3.8400e-11     4.0800e-11     4.3100e-11     4.5200e-11     4.7300e-11     4.9200e-11     5.1100e-11     5.2900e-11     5.4600e-11     5.6200e-11     5.7800e-11     5.9400e-11     6.0900e-11     6.2300e-11     6.3700e-11     6.5100e-11     6.6400e-11     6.7700e-11     6.8900e-11     7.0100e-11     7.1300e-11     7.2400e-11     7.3600e-11     7.4700e-11     7.5700e-11     7.6800e-11
   12     15      3.3900e-30     2.0500e-20     1.3000e-15     4.9500e-14     3.0400e-13     9.0800e-13     1.8900e-12     3.1900e-12     4.7400e-12     6.4700e-12     8.3200e-12     1.0200e-11     1.2200e-11     1.4100e-11     1.6100e-11     1.8000e-11     1.9900e-11     2.1700e-11     2.3500e-11     2.5200e-11     2.6900e-11     2.8500e-11     3.0100e-11     3.1600e-11     3.3100e-11     3.4600e-11     3.5900e-11     3.7300e-11     3.8600e-11     3.9900e-11     4.1100e-11     4.2300e-11     4.3500e-11     4.4600e-11     4.5700e-11     4.6700e-11     4.7800e-11     4.8800e-11     4.9800e-11     5.0700e-11     5.1600e-11
   12     16      1.9900e-37     2.4300e-24     7.7200e-18     1.1300e-15     1.3500e-14     6.0100e-14     1.6200e-13     3.2900e-13     5.6000e-13     8.4800e-13     1.1800e-12     1.5500e-12     1.9500e-12     2.3700e-12     2.8100e-12     3.2600e-12     3.7100e-12     4.1700e-12     4.6300e-12     5.1000e-12     5.5600e-12     6.0200e-12     6.4900e-12     6.9500e-12     7.4100e-12     7.8700e-12     8.3200e-12     8.7800e-12     9.2300e-12     9.6800e-12     1.0100e-11     1.0600e-11     1.1000e-11     1.1500e-11     1.1900e-11     1.2300e-11     1.2800e-11     1.3200e-11     1.3600e-11     1.4100e-11     1.4500e-11
   12     17      1.4000e-45     2.1200e-28     8.4400e-20     5.9700e-17     1.5900e-15     1.1500e-14     4.3700e-14     1.1400e-13     2.3600e-13     4.1700e-13     6.6300e-13     9.7100e-13     1.3400e-12     1.7700e-12     2.2400e-12     2.7600e-12     3.3200e-12     3.9200e-12     4.5400e-12     5.1900e-12     5.8600e-12     6.5500e-12     7.2500e-12     7.9600e-12     8.6800e-12     9.4000e-12     1.0100e-11     1.0900e-11     1.1600e-11     1.2300e-11     1.3000e-11     1.3800e-11     1.4500e-11     1.5200e-11     1.5900e-11     1.6600e-11     1.7300e-11     1.8000e-11     1.8700e-11     1.9300e-11     2.0000e-11
   12     18          0.0000     1.0000e-32     2.6400e-22     8.0900e-19     4.5300e-17     5.1100e-16     2.5900e-15     8.3100e-15     2.0100e-14     4.0000e-14     6.9700e-14     1.1000e-13     1.6200e-13     2.2500e-13     2.9900e-13     3.8400e-13     4.7800e-13     5.8100e-13     6.9300e-13     8.1100e-13     9.3700e-13     1.0700e-12     1.2100e-12     1.3500e-12     1.4900e-12     1.6400e-12     1.8000e-12     1.9600e-12     2.1200e-12     2.2800e-12     2.4400e-12     2.6100e-12     2.7800e-12     2.9500e-12     3.1200e-12     3.2900e-12     3.4600e-12     3.6400e-12     3.8100e-12     3.9800e-12     4.1600e-12
   12     19          0.0000     5.6500e-37     1.9100e-24     3.1500e-20     4.1600e-18     7.9600e-17     5.8100e-16     2.4400e-15     7.2600e-15     1.7200e-14     3.4500e-14     6.1400e-14     1.0000e-13     1.5200e-13     2.1900e-13     3.0100e-13     3.9900e-13     5.1300e-13     6.4400e-13     7.9100e-13     9.5300e-13     1.1300e-12     1.3200e-12     1.5300e-12     1.7500e-12     1.9800e-12     2.2300e-12     2.4800e-12     2.7500e-12     3.0300e-12     3.3100e-12     3.6100e-12     3.9100e-12     4.2300e-12     4.5500e-12     4.8800e-12     5.2100e-12     5.5500e-12     5.8900e-12     6.2300e-12     6.5800e-12
   12     20          0.0000     2.3100e-42     2.9900e-27     2.9900e-22     9.4300e-20     3.0100e-18     3.0800e-17     1.6400e-16     5.8600e-16     1.6000e-15     3.5900e-15     7.0400e-15     1.2400e-14     2.0300e-14     3.1000e-14     4.4900e-14     6.2500e-14     8.4000e-14     1.1000e-13     1.3900e-13     1.7400e-13     2.1200e-13     2.5600e-13     3.0300e-13     3.5500e-13     4.1100e-13     4.7200e-13     5.3700e-13     6.0500e-13     6.7800e-13     7.5400e-13     8.3400e-13     9.1700e-13     1.0000e-12     1.0900e-12     1.1900e-12     1.2800e-12     1.3800e-12     1.4800e-12     1.5800e-12     1.6800e-12
   12     21          0.0000         0.0000     6.5000e-30     4.9500e-24     4.4000e-21     2.6600e-19     4.2300e-18     3.1300e-17     1.4400e-16     4.8000e-16     1.2800e-15     2.8900e-15     5.7800e-15     1.0500e-14     1.7600e-14     2.7800e-14     4.1700e-14     6.0000e-14     8.3300e-14     1.1200e-13     1.4700e-13     1.8800e-13     2.3700e-13     2.9200e-13     3.5500e-13     4.2600e-13     5.0500e-13     5.9200e-13     6.8600e-13     7.8900e-13     9.0000e-13     1.0200e-12     1.1400e-12     1.2800e-12     1.4200e-12     1.5700e-12     1.7200e-12     1.8800e-12     2.0400e-12     2.2100e-12     2.3700e-12
   13      1      2.4100e-15     5.9500e-15     8.0100e-15     9.1300e-15     1.0400e-14     1.1800e-14     1.3600e-14     1.5600e-14     1.8000e-14     2.0700e-14     2.3600e-14     2.6900e-14     3.0600e-14     3.4500e-14     3.8800e-14     4.3400e-14     4.8300e-14     5.3500e-14     5.8900e-14     6.4700e-14     7.0800e-14     7.7100e-14     8.3600e-14     9.0400e-14     9.7400e-14     1.0500e-13     1.1200e-13     1.2000e-13     1.2700e-13     1.3500e-13     1.4300e-13     1.5200e-13     1.6000e-13     1.6800e-13     1.7700e-13     1.8500e-13     1.9400e-13     2.0300e-13     2.1200e-13     2.2000e-13     2.2900e-13
   13      2      8.2200e-15     2.0300e-14     2.6900e-14     3.0200e-14     3.3700e-14     3.8200e-14     4.3600e-14     5.0300e-14     5.8200e-14     6.7400e-14     7.8100e-14     9.0300e-14     1.0400e-13     1.1900e-13     1.3600e-13     1.5400e-13     1.7400e-13     1.9500e-13     2.1700e-13     2.4000e-13     2.6500e-13     2.9100e-13     3.1800e-13     3.4600e-13     3.7500e-13     4.0500e-13     4.3500e-13     4.6700e-13     4.9900e-13     5.3100e-13     5.6400e-13     5.9800e-13     6.3200e-13     6.6600e-13     7.0100e-13     7.3600e-13     7.7100e-13     8.0600e-13     8.4200e-13     8.7800e-13     9.1300e-13
   13      3      2.9700e-14     7.3200e-14     9.6700e-14     1.0700e-13     1.1800e-13     1.3100e-13     1.4600e-13     1.6200e-13     1.8100e-13     2.0100e-13     2.2300e-13     2.4700e-13     2.7300e-13     3.0000e-13     3.2900e-13     3.6000e-13     3.9100e-13     4.2500e-13     4.5900e-13     4.9500e-13     5.3100e-13     5.6900e-13     6.0700e-13     6.4700e-13     6.8700e-13     7.2800e-13     7.6900e-13     8.1100e-13     8.5400e-13     8.9700e-13     9.4000e-13     9.8400e-13     1.0300e-12     1.0700e-12     1.1200e-12     1.1600e-12     1.2100e-12     1.2500e-12     1.3000e-12     1.3400e-12     1.3900e-12
   13      4      6.2000e-14     1.5300e-13     2.0700e-13     2.3500e-13     2.6400e-13     2.9800e-13     3.3800e-13     3.8400e-13     4.3600e-13     4.9400e-13     5.5800e-13     6.2700e-13     7.0100e-13     7.8000e-13     8.6300e-13     9.5000e-13     1.0400e-12     1.1300e-12     1.2300e-12     1.3300e-12     1.4300e-12     1.5300e-12     1.6400e-12     1.7500e-12     1.8500e-12     1.9600e-12     2.0700e-12     2.1800e-12     2.2900e-12     2.4100e-12     2.5200e-12     2.6300e-12     2.7400e-12     2.8600e-12     2.9700e-12     3.0800e-12     3.1900e-12     3.3100e-12     3.4200e-12     3.5300e-12     3.6400e-12
   13      5      1.9900e-13     4.8900e-13     6.3600e-13     6.8800e-13     7.3300e-13     7.8200e-13     8.3600e-13     8.9500e-13     9.5700e-13     1.0200e-12     1.0900e-12     1.1600e-12     1.2400e-12     1.3100e-12     1.3900e-12     1.4700e-12     1.5500e-12     1.6300e-12     1.7100e-12     1.7900e-12     1.8700e-12     1.9500e-12     2.0300e-12     2.1100e-12     2.1900e-12     2.2800e-12     2.3600e-12     2.4400e-12     2.5200e-12     2.6000e-12     2.6800e-12     2.7600e-12     2.8400e-12     2.9200e-12     3.0000e-12     3.0800e-12     3.1600e-12     3.2400e-12     3.3200e-12     3.3900e-12     3.4700e-12
   13      6      5.5000e-13     1.3500e-12     1.7900e-12     1.9700e-12     2.1400e-12     2.3300e-12     2.5400e-12     2.7600e-12     3.0000e-12     3.2500e-12     3.5100e-12     3.7900e-12     4.0700e-12     4.3500e-12     4.6400e-12     4.9300e-12     5.2200e-12     5.5200e-12     5.8100e-12     6.1100e-12     6.4000e-12     6.6900e-12     6.9800e-12     7.2700e-12     7.5500e-12     7.8400e-12     8.1200e-12     8.4000e-12     8.6700e-12     8.9500e-12     9.2200e-12     9.4900e-12     9.7500e-12     1.0000e-11     1.0300e-11     1.0500e-11     1.0800e-11     1.1000e-11     1.1300e-11     1.1500e-11     1.1800e-11
   13      7      1.1200e-12     2.7600e-12     3.5400e-12     3.7200e-12     3.8300e-12     3.9200e-12     4.0200e-12     4.1300e-12     4.2400e-12     4.3500e-12     4.4600e-12     4.5700e-12     4.6900e-12     4.8000e-12     4.9100e-12     5.0300e-12     5.1400e-12     5.2500e-12     5.3600e-12     5.4700e-12     5.5800e-12     5.6900e-12     5.8000e-12     5.9100e-12     6.0200e-12     6.1300e-12     6.2400e-12     6.3500e-12     6.4600e-12     6.5700e-12     6.6800e-12     6.7900e-12     6.9000e-12     7.0100e-12     7.1200e-12     7.2300e-12     7.3400e-12     7.4500e-12     7.5600e-12     7.6700e-12     7.7800e-12
   13      8      3.6600e-12     8.9700e-12     1.1600e-11     1.2400e-11     1.3000e-11     1.3500e-11     1.4100e-11     1.4700e-11     1.5400e-11     1.6000e-11     1.6700e-11     1.7300e-11     1.8000e-11     1.8600e-11     1.9300e-11     1.9900e-11     2.0500e-11     2.1100e-11     2.1700e-11     2.2300e-11     2.2900e-11     2.3400e-11     2.4000e-11     2.4500e-11     2.5000e-11     2.5500e-11     2.6000e-11     2.6500e-11     2.7000e-11     2.7400e-11     2.7900e-11     2.8300e-11     2.8800e-11     2.9200e-11     2.9600e-11     3.0000e-11     3.0400e-11     3.0800e-11     3.1200e-11     3.1600e-11     3.2000e-11
   13      9      5.5400e-12     1.3700e-11     1.7500e-11     1.8000e-11     1.8000e-11     1.7900e-11     1.7800e-11     1.7700e-11     1.7600e-11     1.7600e-11     1.7600e-11     1.7600e-11     1.7600e-11     1.7700e-11     1.7700e-11     1.7800e-11     1.7900e-11     1.8000e-11     1.8100e-11     1.8300e-11     1.8400e-11     1.8600e-11     1.8700e-11     1.8900e-11     1.9100e-11     1.9200e-11     1.9400e-11     1.9600e-11     1.9800e-11     2.0000e-11     2.0200e-11     2.0400e-11     2.0600e-11     2.0800e-11     2.1000e-11     2.1200e-11     2.1500e-11     2.1700e-11     2.1900e-11     2.2100e-11     2.2300e-11
   13     10      1.4100e-11     3.4700e-11     4.4600e-11     4.6800e-11     4.7800e-11     4.8500e-11     4.9200e-11     4.9900e-11     5.0500e-11     5.1200e-11     5.1900e-11     5.2600e-11     5.3200e-11     5.3900e-11     5.4500e-11     5.5200e-11     5.5800e-11     5.6400e-11     5.7000e-11     5.7500e-11     5.8100e-11     5.8600e-11     5.9100e-11     5.9600e-11     6.0100e-11     6.0600e-11     6.1000e-11     6.1500e-11     6.1900e-11     6.2300e-11     6.2700e-11     6.3100e-11     6.3500e-11     6.3900e-11     6.4300e-11     6.4700e-11     6.5000e-11     6.5400e-11     6.5700e-11     6.6000e-11     6.6300e-11
   13     11      2.7800e-11     6.8700e-11     8.8500e-11     9.0900e-11     9.0400e-11     8.9300e-11     8.8200e-11     8.7200e-11     8.6400e-11     8.5800e-11     8.5300e-11     8.4900e-11     8.4700e-11     8.4600e-11     8.4500e-11     8.4600e-11     8.4700e-11     8.4800e-11     8.5000e-11     8.5300e-11     8.5600e-11     8.5900e-11     8.6200e-11     8.6500e-11     8.6900e-11     8.7300e-11     8.7700e-11     8.8100e-11     8.8500e-11     8.8900e-11     8.9300e-11     8.9700e-11     9.0100e-11     9.0600e-11     9.1000e-11     9.1400e-11     9.1900e-11     9.2300e-11     9.2700e-11     9.3100e-11     9.3500e-11
   13     12      2.8100e-11     7.0200e-11     9.3300e-11     9.8500e-11     9.9700e-11     9.9700e-11     9.9400e-11     9.9100e-11     9.8800e-11     9.8600e-11     9.8400e-11     9.8400e-11     9.8300e-11     9.8400e-11     9.8500e-11     9.8600e-11     9.8700e-11     9.8900e-11     9.9100e-11     9.9300e-11     9.9500e-11     9.9700e-11     9.9900e-11     1.0000e-10     1.0000e-10     1.0100e-10     1.0100e-10     1.0100e-10     1.0100e-10     1.0200e-10     1.0200e-10     1.0200e-10     1.0200e-10     1.0300e-10     1.0300e-10     1.0300e-10     1.0300e-10     1.0400e-10     1.0400e-10     1.0400e-10     1.0400e-10
   13     13      1.5500e-10     4.2800e-10     7.7500e-10     1.0500e-09     1.2900e-09     1.4800e-09     1.6400e-09     1.7800e-09     1.9000e-09     2.0000e-09     2.0900e-09     2.1600e-09     2.2300e-09     2.2800e-09     2.3300e-09     2.3800e-09     2.4200e-09     2.4500e-09     2.4800e-09     2.5100e-09     2.5400e-09     2.5600e-09     2.5800e-09     2.6000e-09     2.6200e-09     2.6300e-09     2.6500e-09     2.6600e-09     2.6700e-09     2.6800e-09     2.6900e-09     2.7000e-09     2.7100e-09     2.7200e-09     2.7300e-09     2.7300e-09     2.7400e-09     2.7500e-09     2.7500e-09     2.7600e-09     2.7600e-09
   13     14      1.1100e-17     4.8700e-14     2.6100e-12     9.3500e-12     1.7400e-11     2.5200e-11     3.2100e-11     3.8200e-11     4.3400e-11     4.8000e-11     5.2000e-11     5.5600e-11     5.8800e-11     6.1700e-11     6.4300e-11     6.6600e-11     6.8800e-11     7.0800e-11     7.2600e-11     7.4300e-11     7.5900e-11     7.7400e-11     7.8900e-11     8.0200e-11     8.1400e-11     8.2600e-11     8.3700e-11     8.4800e-11     8.5800e-11     8.6800e-11     8.7700e-11     8.8600e-11     8.9500e-11     9.0300e-11     9.1100e-11     9.1900e-11     9.2600e-11     9.3400e-11     9.4000e-11     9.4700e-11     9.5300e-11
   13     15      2.6800e-24     2.1800e-17     5.1500e-14     6.5300e-13     2.2900e-12     4.8100e-12     7.8700e-12     1.1200e-11     1.4500e-11     1.7800e-11     2.0900e-11     2.4000e-11     2.6800e-11     2.9500e-11     3.2100e-11     3.4600e-11     3.6900e-11     3.9100e-11     4.1200e-11     4.3200e-11     4.5200e-11     4.7000e-11     4.8800e-11     5.0500e-11     5.2200e-11     5.3800e-11     5.5300e-11     5.6800e-11     5.8300e-11     5.9700e-11     6.1100e-11     6.2400e-11     6.3700e-11     6.4900e-11     6.6200e-11     6.7400e-11     6.8500e-11     6.9700e-11     7.0800e-11     7.1800e-11     7.2900e-11
   13     16      3.6800e-31     5.8200e-21     6.4700e-16     3.0800e-14     2.1300e-13     6.8500e-13     1.5000e-12     2.6200e-12     4.0000e-12     5.5800e-12     7.2900e-12     9.0900e-12     1.0900e-11     1.2800e-11     1.4700e-11     1.6500e-11     1.8400e-11     2.0100e-11     2.1900e-11     2.3600e-11     2.5300e-11     2.6900e-11     2.8500e-11     3.0000e-11     3.1500e-11     3.2900e-11     3.4300e-11     3.5600e-11     3.6900e-11     3.8200e-11     3.9400e-11     4.0600e-11     4.1800e-11     4.2900e-11     4.4000e-11     4.5100e-11     4.6100e-11     4.7100e-11     4.8100e-11     4.9100e-11     5.0000e-11
   13     17      4.2400e-40     1.3500e-25     1.9700e-18     4.6000e-16     6.9200e-15     3.5000e-14     1.0300e-13     2.2200e-13     3.9600e-13     6.2200e-13     8.9200e-13     1.2000e-12     1.5400e-12     1.9000e-12     2.2900e-12     2.6800e-12     3.0900e-12     3.5100e-12     3.9400e-12     4.3700e-12     4.8100e-12     5.2500e-12     5.6900e-12     6.1400e-12     6.5800e-12     7.0300e-12     7.4800e-12     7.9300e-12     8.3900e-12     8.8400e-12     9.2900e-12     9.7400e-12     1.0200e-11     1.0600e-11     1.1100e-11     1.1600e-11     1.2000e-11     1.2500e-11     1.2900e-11     1.3300e-11     1.3800e-11
   13     18          0.0000     2.9000e-29     2.7200e-20     2.7400e-17     8.8300e-16     7.1900e-15     2.9500e-14     8.1400e-14     1.7600e-13     3.2200e-13     5.2600e-13     7.8800e-13     1.1100e-12     1.4900e-12     1.9100e-12     2.3900e-12     2.9000e-12     3.4600e-12     4.0400e-12     4.6600e-12     5.3000e-12     5.9500e-12     6.6300e-12     7.3200e-12     8.0200e-12     8.7400e-12     9.4600e-12     1.0200e-11     1.0900e-11     1.1600e-11     1.2400e-11     1.3100e-11     1.3800e-11     1.4600e-11     1.5300e-11     1.6000e-11     1.6700e-11     1.7400e-11     1.8100e-11     1.8800e-11     1.9500e-11
   13     19          0.0000     3.8600e-34     4.8300e-23     2.6200e-19     1.9600e-17     2.6200e-16     1.4900e-15     5.1900e-15     1.3300e-14     2.7900e-14     5.0700e-14     8.2800e-14     1.2500e-13     1.7800e-13     2.4100e-13     3.1400e-13     3.9600e-13     4.8800e-13     5.8800e-13     6.9500e-13     8.0900e-13     9.3000e-13     1.0600e-12     1.1900e-12     1.3200e-12     1.4600e-12     1.6100e-12     1.7600e-12     1.9100e-12     2.0600e-12     2.2200e-12     2.3800e-12     2.5400e-12     2.7000e-12     2.8600e-12     3.0300e-12     3.2000e-12     3.3600e-12     3.5300e-12     3.7000e-12     3.8700e-12
   13     20          0.0000     5.6200e-39     2.6300e-25     8.6800e-21     1.5700e-18     3.6000e-17     2.9400e-16     1.3400e-15     4.2400e-15     1.0500e-14     2.1800e-14     4.0100e-14     6.7100e-14     1.0400e-13     1.5300e-13     2.1400e-13     2.8700e-13     3.7500e-13     4.7500e-13     5.8900e-13     7.1700e-13     8.5800e-13     1.0100e-12     1.1800e-12     1.3500e-12     1.5400e-12     1.7400e-12     1.9500e-12     2.1700e-12     2.4000e-12     2.6300e-12     2.8800e-12     3.1300e-12     3.3900e-12     3.6500e-12     3.9200e-12     4.1900e-12     4.4700e-12     4.7500e-12     5.0300e-12     5.3100e-12
   13     21          0.0000     1.1200e-44     2.0800e-28     5.2400e-23     2.6700e-20     1.1500e-18     1.4600e-17     9.2000e-17     3.7300e-16     1.1300e-15     2.7900e-15     5.9100e-15     1.1200e-14     1.9300e-14     3.1200e-14     4.7600e-14     6.9300e-14     9.7000e-14     1.3100e-13     1.7300e-13     2.2300e-13     2.8100e-13     3.4700e-13     4.2300e-13     5.0700e-13     6.0100e-13     7.0500e-13     8.1800e-13     9.4000e-13     1.0700e-12     1.2100e-12     1.3600e-12     1.5200e-12     1.6900e-12     1.8600e-12     2.0400e-12     2.2300e-12     2.4200e-12     2.6200e-12     2.8200e-12     3.0200e-12
   14      1      5.8400e-16     1.9500e-15     3.0500e-15     3.6100e-15     4.1600e-15     4.8000e-15     5.5700e-15     6.5100e-15     7.6200e-15     8.9400e-15     1.0500e-14     1.2300e-14     1.4300e-14     1.6600e-14     1.9200e-14     2.2100e-14     2.5200e-14     2.8700e-14     3.2400e-14     3.6500e-14     4.0800e-14     4.5400e-14     5.0200e-14     5.5400e-14     6.0700e-14     6.6300e-14     7.2200e-14     7.8200e-14     8.4500e-14     9.0900e-14     9.7500e-14     1.0400e-13     1.1100e-13     1.1800e-13     1.2500e-13     1.3300e-13     1.4000e-13     1.4800e-13     1.5500e-13     1.6300e-13     1.7100e-13
   14      2      2.8600e-15     9.5700e-15     1.4900e-14     1.7800e-14     2.0500e-14     2.3600e-14     2.7200e-14     3.1400e-14     3.6200e-14     4.1600e-14     4.7700e-14     5.4400e-14     6.1900e-14     7.0100e-14     7.8900e-14     8.8500e-14     9.8800e-14     1.1000e-13     1.2100e-13     1.3400e-13     1.4700e-13     1.6000e-13     1.7400e-13     1.8900e-13     2.0400e-13     2.2000e-13     2.3700e-13     2.5300e-13     2.7100e-13     2.8800e-13     3.0700e-13     3.2500e-13     3.4400e-13     3.6300e-13     3.8200e-13     4.0200e-13     4.2200e-13     4.4200e-13     4.6200e-13     4.8300e-13     5.0300e-13
   14      3      6.6100e-15     2.2100e-14     3.4400e-14     4.0600e-14     4.6500e-14     5.3200e-14     6.1200e-14     7.0700e-14     8.1700e-14     9.4500e-14     1.0900e-13     1.2500e-13     1.4400e-13     1.6400e-13     1.8600e-13     2.1000e-13     2.3500e-13     2.6200e-13     2.9100e-13     3.2200e-13     3.5400e-13     3.8700e-13     4.2200e-13     4.5800e-13     4.9500e-13     5.3300e-13     5.7300e-13     6.1300e-13     6.5400e-13     6.9500e-13     7.3800e-13     7.8100e-13     8.2500e-13     8.6900e-13     9.1400e-13     9.5900e-13     1.0000e-12     1.0500e-12     1.1000e-12     1.1400e-12     1.1900e-12
   14      4      2.2000e-14     7.3400e-14     1.1300e-13     1.3100e-13     1.4600e-13     1.6300e-13     1.8100e-13     2.0100e-13     2.2300e-13     2.4800e-13     2.7400e-13     3.0200e-13     3.3200e-13     3.6400e-13     3.9800e-13     4.3300e-13     4.6900e-13     5.0800e-13     5.4700e-13     5.8800e-13     6.3000e-13     6.7300e-13     7.1700e-13     7.6200e-13     8.0800e-13     8.5500e-13     9.0200e-13     9.5000e-13     9.9900e-13     1.0500e-12     1.1000e-12     1.1500e-12     1.2000e-12     1.2500e-12     1.3000e-12     1.3500e-12     1.4000e-12     1.4500e-12     1.5000e-12     1.5600e-12     1.6100e-12
   14      5      4.9200e-14     1.6500e-13     2.5600e-13     3.0100e-13     3.4300e-13     3.8800e-13     4.3800e-13     4.9500e-13     5.5800e-13     6.2700e-13     7.0200e-13     7.8200e-13     8.6800e-13     9.5800e-13     1.0500e-12     1.1500e-12     1.2500e-12     1.3600e-12     1.4700e-12     1.5800e-12     1.6900e-12     1.8000e-12     1.9200e-12     2.0400e-12     2.1500e-12     2.2700e-12     2.3900e-12     2.5100e-12     2.6300e-12     2.7500e-12     2.8700e-12     3.0000e-12     3.1200e-12     3.2400e-12     3.3600e-12     3.4800e-12     3.6000e-12     3.7200e-12     3.8400e-12     3.9600e-12     4.0800e-12
   14      6      1.3200e-13     4.3800e-13     6.6400e-13     7.5200e-13     8.1700e-13     8.7900e-13     9.4400e-13     1.0100e-12     1.0800e-12     1.1500e-12     1.2300e-12     1.3100e-12     1.3900e-12     1.4700e-12     1.5500e-12     1.6400e-12     1.7200e-12     1.8100e-12     1.8900e-12     1.9800e-12     2.0600e-12     2.1500e-12     2.2300e-12     2.3200e-12     2.4100e-12     2.4900e-12     2.5800e-12     2.6600e-12     2.7500e-12     2.8300e-12     2.9200e-12     3.0000e-12     3.0800e-12     3.1700e-12     3.2500e-12     3.3300e-12     3.4100e-12     3.4900e-12     3.5800e-12     3.6600e-12     3.7300e-12
   14      7      4.0300e-13     1.3400e-12     2.0300e-12     2.3100e-12     2.5400e-12     2.7700e-12     3.0100e-12     3.2600e-12     3.5300e-12     3.8000e-12     4.0900e-12     4.3800e-12     4.6800e-12     4.9800e-12     5.2900e-12     5.6000e-12     5.9100e-12     6.2200e-12     6.5200e-12     6.8300e-12     7.1400e-12     7.4400e-12     7.7400e-12     8.0400e-12     8.3300e-12     8.6300e-12     8.9200e-12     9.2000e-12     9.4900e-12     9.7700e-12     1.0000e-11     1.0300e-11     1.0600e-11     1.0900e-11     1.1100e-11     1.1400e-11     1.1700e-11     1.1900e-11     1.2200e-11     1.2400e-11     1.2700e-11
   14      8      6.8000e-13     2.2600e-12     3.3800e-12     3.7300e-12     3.9100e-12     4.0600e-12     4.1900e-12     4.3100e-12     4.4300e-12     4.5600e-12     4.6800e-12     4.7900e-12     4.9100e-12     5.0300e-12     5.1400e-12     5.2600e-12     5.3700e-12     5.4900e-12     5.6000e-12     5.7100e-12     5.8200e-12     5.9300e-12     6.0500e-12     6.1600e-12     6.2700e-12     6.3800e-12     6.4900e-12     6.6000e-12     6.7100e-12     6.8200e-12     6.9300e-12     7.0400e-12     7.1500e-12     7.2600e-12     7.3800e-12     7.4900e-12     7.6000e-12     7.7100e-12     7.8200e-12     7.9300e-12     8.0400e-12
   14      9      2.4200e-12     8.0000e-12     1.1900e-11     1.3200e-11     1.4000e-11     1.4700e-11     1.5400e-11     1.6100e-11     1.6800e-11     1.7500e-11     1.8200e-11     1.8800e-11     1.9500e-11     2.0200e-11     2.0800e-11     2.1400e-11     2.2100e-11     2.2700e-11     2.3300e-11     2.3800e-11     2.4400e-11     2.5000e-11     2.5500e-11     2.6000e-11     2.6500e-11     2.7000e-11     2.7500e-11     2.8000e-11     2.8500e-11     2.9000e-11     2.9400e-11     2.9800e-11     3.0300e-11     3.0700e-11     3.1100e-11     3.1500e-11     3.1900e-11     3.2300e-11     3.2700e-11     3.3100e-11     3.3400e-11
   14     10      3.1100e-12     1.0400e-11     1.5500e-11     1.6800e-11     1.7100e-11     1.7300e-11     1.7300e-11     1.7300e-11     1.7300e-11     1.7400e-11     1.7400e-11     1.7400e-11     1.7500e-11     1.7600e-11     1.7600e-11     1.7700e-11     1.7800e-11     1.8000e-11     1.8100e-11     1.8200e-11     1.8400e-11     1.8500e-11     1.8700e-11     1.8900e-11     1.9000e-11     1.9200e-11     1.9400e-11     1.9600e-11     1.9800e-11     2.0000e-11     2.0200e-11     2.0400e-11     2.0600e-11     2.0800e-11     2.1100e-11     2.1300e-11     2.1500e-11     2.1700e-11     2.1900e-11     2.2100e-11     2.2400e-11
   14     11      8.8800e-12     2.9300e-11     4.3000e-11     4.6700e-11     4.8500e-11     4.9800e-11     5.0700e-11     5.1600e-11     5.2400e-11     5.3200e-11     5.4000e-11     5.4700e-11     5.5400e-11     5.6100e-11     5.6700e-11     5.7300e-11     5.8000e-11     5.8500e-11     5.9100e-11     5.9700e-11     6.0200e-11     6.0700e-11     6.1200e-11     6.1700e-11     6.2200e-11     6.2600e-11     6.3100e-11     6.3500e-11     6.3900e-11     6.4300e-11     6.4700e-11     6.5100e-11     6.5500e-11     6.5900e-11     6.6200e-11     6.6600e-11     6.6900e-11     6.7300e-11     6.7600e-11     6.7900e-11     6.8200e-11
   14     12      1.5000e-11     5.0300e-11     7.5500e-11     8.1600e-11     8.3100e-11     8.3400e-11     8.3100e-11     8.2800e-11     8.2500e-11     8.2200e-11     8.2000e-11     8.1900e-11     8.1900e-11     8.2000e-11     8.2100e-11     8.2200e-11     8.2400e-11     8.2700e-11     8.3000e-11     8.3300e-11     8.3600e-11     8.4000e-11     8.4400e-11     8.4800e-11     8.5200e-11     8.5600e-11     8.6100e-11     8.6500e-11     8.7000e-11     8.7400e-11     8.7900e-11     8.8300e-11     8.8800e-11     8.9200e-11     8.9700e-11     9.0100e-11     9.0600e-11     9.1000e-11     9.1500e-11     9.1900e-11     9.2400e-11
   14     13      1.7900e-11     5.9500e-11     8.7900e-11     9.5000e-11     9.7300e-11     9.8200e-11     9.8500e-11     9.8600e-11     9.8700e-11     9.8700e-11     9.8800e-11     9.8900e-11     9.9100e-11     9.9200e-11     9.9400e-11     9.9600e-11     9.9800e-11     1.0000e-10     1.0000e-10     1.0000e-10     1.0100e-10     1.0100e-10     1.0100e-10     1.0100e-10     1.0200e-10     1.0200e-10     1.0200e-10     1.0200e-10     1.0300e-10     1.0300e-10     1.0300e-10     1.0300e-10     1.0400e-10     1.0400e-10     1.0400e-10     1.0400e-10     1.0500e-10     1.0500e-10     1.0500e-10     1.0500e-10     1.0600e-10
   14     14      9.9200e-11     3.6700e-10     7.4500e-10     1.0400e-09     1.2800e-09     1.4700e-09     1.6400e-09     1.7800e-09     1.9000e-09     2.0000e-09     2.0800e-09     2.1600e-09     2.2200e-09     2.2800e-09     2.3300e-09     2.3800e-09     2.4200e-09     2.4500e-09     2.4800e-09     2.5100e-09     2.5400e-09     2.5600e-09     2.5800e-09     2.6000e-09     2.6200e-09     2.6300e-09     2.6500e-09     2.6600e-09     2.6700e-09     2.6800e-09     2.6900e-09     2.7000e-09     2.7100e-09     2.7200e-09     2.7300e-09     2.7300e-09     2.7400e-09     2.7500e-09     2.7500e-09     2.7600e-09     2.7600e-09
   14     15      5.8200e-18     3.5100e-14     2.2100e-12     8.3800e-12     1.6100e-11     2.3700e-11     3.0600e-11     3.6800e-11     4.2100e-11     4.6800e-11     5.1000e-11     5.4700e-11     5.8000e-11     6.0900e-11     6.3600e-11     6.6100e-11     6.8300e-11     7.0400e-11     7.2300e-11     7.4000e-11     7.5700e-11     7.7200e-11     7.8700e-11     8.0000e-11     8.1300e-11     8.2500e-11     8.3600e-11     8.4700e-11     8.5800e-11     8.6700e-11     8.7700e-11     8.8600e-11     8.9500e-11     9.0300e-11     9.1100e-11     9.1900e-11     9.2600e-11     9.3300e-11     9.4000e-11     9.4600e-11     9.5300e-11
   14     16      7.3900e-25     9.0700e-18     2.9300e-14     4.3000e-13     1.6400e-12     3.6400e-12     6.1900e-12     9.0400e-12     1.2000e-11     1.5000e-11     1.7900e-11     2.0700e-11     2.3400e-11     2.6000e-11     2.8500e-11     3.0900e-11     3.3200e-11     3.5400e-11     3.7500e-11     3.9500e-11     4.1400e-11     4.3300e-11     4.5100e-11     4.6800e-11     4.8500e-11     5.0100e-11     5.1700e-11     5.3200e-11     5.4700e-11     5.6100e-11     5.7500e-11     5.8900e-11     6.0200e-11     6.1500e-11     6.2800e-11     6.4000e-11     6.5200e-11     6.6400e-11     6.7500e-11     6.8700e-11     6.9700e-11
   14     17      2.4600e-33     5.8400e-22     2.3000e-16     1.6000e-14     1.3300e-13     4.7200e-13     1.1000e-12     2.0300e-12     3.2000e-12     4.5900e-12     6.1200e-12     7.7700e-12     9.4800e-12     1.1200e-11     1.3000e-11     1.4800e-11     1.6500e-11     1.8300e-11     2.0000e-11     2.1600e-11     2.3200e-11     2.4800e-11     2.6400e-11     2.7900e-11     2.9400e-11     3.0800e-11     3.2200e-11     3.3500e-11     3.4800e-11     3.6100e-11     3.7300e-11     3.8500e-11     3.9700e-11     4.0800e-11     4.1900e-11     4.2900e-11     4.4000e-11     4.5000e-11     4.6000e-11     4.6900e-11     4.7800e-11
   14     18      4.6600e-41     2.8000e-26     7.5900e-19     2.3300e-16     4.0900e-15     2.2700e-14     7.1400e-14     1.6200e-13     2.9800e-13     4.8100e-13     7.0600e-13     9.6700e-13     1.2600e-12     1.5800e-12     1.9100e-12     2.2700e-12     2.6300e-12     3.0100e-12     3.4000e-12     3.7900e-12     4.1800e-12     4.5800e-12     4.9900e-12     5.3900e-12     5.7900e-12     6.2000e-12     6.6100e-12     7.0100e-12     7.4200e-12     7.8300e-12     8.2300e-12     8.6400e-12     9.0400e-12     9.4400e-12     9.8400e-12     1.0200e-11     1.0600e-11     1.1000e-11     1.1400e-11     1.1800e-11     1.2200e-11
   14     19          0.0000     1.9600e-30     6.6400e-21     1.0900e-17     4.4700e-16     4.2000e-15     1.8900e-14     5.6000e-14     1.2700e-13     2.4300e-13     4.0900e-13     6.2900e-13     9.0300e-13     1.2300e-12     1.6100e-12     2.0400e-12     2.5000e-12     3.0100e-12     3.5500e-12     4.1300e-12     4.7300e-12     5.3500e-12     6.0000e-12     6.6600e-12     7.3400e-12     8.0300e-12     8.7300e-12     9.4400e-12     1.0200e-11     1.0900e-11     1.1600e-11     1.2400e-11     1.3100e-11     1.3800e-11     1.4600e-11     1.5300e-11     1.6100e-11     1.6800e-11     1.7500e-11     1.8200e-11     1.9000e-11
   14     20          0.0000     6.8200e-36     8.7700e-24     8.6600e-20     8.4500e-18     1.3200e-16     8.2600e-16     3.0800e-15     8.3200e-15     1.8100e-14     3.3900e-14     5.6800e-14     8.7700e-14     1.2700e-13     1.7500e-13     2.3200e-13     2.9800e-13     3.7200e-13     4.5400e-13     5.4400e-13     6.4100e-13     7.4600e-13     8.5700e-13     9.7400e-13     1.1000e-12     1.2300e-12     1.3600e-12     1.5000e-12     1.6500e-12     1.7900e-12     1.9500e-12     2.1100e-12     2.2700e-12     2.4300e-12     2.6000e-12     2.7700e-12     2.9400e-12     3.1200e-12     3.2900e-12     3.4700e-12     3.6400e-12
   14     21          0.0000     4.9400e-41     2.5900e-26     1.9500e-21     5.3600e-19     1.5900e-17     1.5500e-16     8.0600e-16     2.8200e-15     7.5500e-15     1.6800e-14     3.2600e-14     5.7200e-14     9.2600e-14     1.4100e-13     2.0300e-13     2.8200e-13     3.7700e-13     4.9000e-13     6.2100e-13     7.7000e-13     9.3800e-13     1.1200e-12     1.3300e-12     1.5500e-12     1.7900e-12     2.0500e-12     2.3200e-12     2.6100e-12     2.9100e-12     3.2300e-12     3.5600e-12     3.9000e-12     4.2500e-12     4.6200e-12     4.9900e-12     5.3700e-12     5.7500e-12     6.1400e-12     6.5300e-12     6.9200e-12
   15      1      4.4500e-16     1.2000e-15     1.7100e-15     2.0000e-15     2.3300e-15     2.7400e-15     3.2400e-15     3.8400e-15     4.5600e-15     5.4000e-15     6.3700e-15     7.4900e-15     8.7400e-15     1.0200e-14     1.1700e-14     1.3400e-14     1.5300e-14     1.7400e-14     1.9600e-14     2.2000e-14     2.4500e-14     2.7200e-14     3.0100e-14     3.3200e-14     3.6300e-14     3.9700e-14     4.3200e-14     4.6800e-14     5.0600e-14     5.4500e-14     5.8500e-14     6.2700e-14     6.7000e-14     7.1300e-14     7.5800e-14     8.0400e-14     8.5100e-14     8.9800e-14     9.4600e-14     9.9500e-14     1.0400e-13
   15      2      1.7800e-15     4.8000e-15     6.7500e-15     7.7300e-15     8.7700e-15     1.0000e-14     1.1600e-14     1.3500e-14     1.5800e-14     1.8500e-14     2.1700e-14     2.5400e-14     2.9700e-14     3.4400e-14     3.9800e-14     4.5800e-14     5.2400e-14     5.9600e-14     6.7400e-14     7.5900e-14     8.4900e-14     9.4600e-14     1.0500e-13     1.1600e-13     1.2700e-13     1.3900e-13     1.5200e-13     1.6500e-13     1.7800e-13     1.9200e-13     2.0600e-13     2.2100e-13     2.3600e-13     2.5200e-13     2.6700e-13     2.8400e-13     3.0000e-13     3.1700e-13     3.3300e-13     3.5000e-13     3.6800e-13
   15      3      6.3600e-15     1.7000e-14     2.3700e-14     2.6800e-14     3.0100e-14     3.4000e-14     3.8500e-14     4.3900e-14     5.0000e-14     5.7000e-14     6.4900e-14     7.3600e-14     8.3300e-14     9.3800e-14     1.0500e-13     1.1800e-13     1.3100e-13     1.4500e-13     1.6000e-13     1.7600e-13     1.9300e-13     2.1000e-13     2.2900e-13     2.4800e-13     2.6800e-13     2.8800e-13     3.0900e-13     3.3100e-13     3.5400e-13     3.7700e-13     4.0000e-13     4.2500e-13     4.4900e-13     4.7400e-13     5.0000e-13     5.2600e-13     5.5200e-13     5.7800e-13     6.0500e-13     6.3200e-13     6.5800e-13
   15      4      1.3500e-14     3.6300e-14     5.0800e-14     5.7800e-14     6.4800e-14     7.3200e-14     8.3300e-14     9.5200e-14     1.0900e-13     1.2500e-13     1.4300e-13     1.6400e-13     1.8600e-13     2.1000e-13     2.3700e-13     2.6600e-13     2.9600e-13     3.2900e-13     3.6300e-13     3.9900e-13     4.3700e-13     4.7600e-13     5.1600e-13     5.5800e-13     6.0200e-13     6.4600e-13     6.9100e-13     7.3800e-13     7.8500e-13     8.3300e-13     8.8200e-13     9.3100e-13     9.8200e-13     1.0300e-12     1.0800e-12     1.1400e-12     1.1900e-12     1.2400e-12     1.2900e-12     1.3500e-12     1.4000e-12
   15      5      4.1500e-14     1.1100e-13     1.5300e-13     1.7000e-13     1.8600e-13     2.0300e-13     2.2400e-13     2.4600e-13     2.7100e-13     2.9900e-13     3.2900e-13     3.6000e-13     3.9400e-13     4.3000e-13     4.6800e-13     5.0700e-13     5.4900e-13     5.9100e-13     6.3500e-13     6.8000e-13     7.2700e-13     7.7500e-13     8.2300e-13     8.7300e-13     9.2300e-13     9.7400e-13     1.0300e-12     1.0800e-12     1.1300e-12     1.1900e-12     1.2400e-12     1.2900e-12     1.3500e-12     1.4000e-12     1.4600e-12     1.5100e-12     1.5700e-12     1.6200e-12     1.6800e-12     1.7300e-12     1.7900e-12
   15      6      9.9200e-14     2.6500e-13     3.6800e-13     4.1400e-13     4.5800e-13     5.0800e-13     5.6600e-13     6.3000e-13     7.0200e-13     7.8000e-13     8.6500e-13     9.5600e-13     1.0500e-12     1.1500e-12     1.2600e-12     1.3700e-12     1.4800e-12     1.5900e-12     1.7100e-12     1.8300e-12     1.9500e-12     2.0800e-12     2.2000e-12     2.3300e-12     2.4600e-12     2.5800e-12     2.7100e-12     2.8400e-12     2.9700e-12     3.1000e-12     3.2300e-12     3.3600e-12     3.4900e-12     3.6200e-12     3.7500e-12     3.8800e-12     4.0000e-12     4.1300e-12     4.2600e-12     4.3900e-12     4.5100e-12
   15      7      2.2700e-13     6.0700e-13     8.2800e-13     9.0200e-13     9.6000e-13     1.0200e-12     1.0800e-12     1.1500e-12     1.2300e-12     1.3000e-12     1.3800e-12     1.4600e-12     1.5500e-12     1.6400e-12     1.7200e-12     1.8100e-12     1.9000e-12     1.9900e-12     2.0800e-12     2.1700e-12     2.2600e-12     2.3500e-12     2.4400e-12     2.5300e-12     2.6200e-12     2.7100e-12     2.8000e-12     2.8800e-12     2.9700e-12     3.0600e-12     3.1500e-12     3.2300e-12     3.3200e-12     3.4000e-12     3.4900e-12     3.5700e-12     3.6500e-12     3.7400e-12     3.8200e-12     3.9000e-12     3.9800e-12
   15      8      7.4100e-13     1.9700e-12     2.6700e-12     2.9300e-12     3.1300e-12     3.3600e-12     3.6000e-12     3.8500e-12     4.1300e-12     4.4200e-12     4.7100e-12     5.0200e-12     5.3300e-12     5.6500e-12     5.9700e-12     6.2900e-12     6.6100e-12     6.9300e-12     7.2400e-12     7.5600e-12     7.8800e-12     8.1900e-12     8.5000e-12     8.8000e-12     9.1100e-12     9.4100e-12     9.7100e-12     1.0000e-11     1.0300e-11     1.0600e-11     1.0900e-11     1.1100e-11     1.1400e-11     1.1700e-11     1.2000e-11     1.2200e-11     1.2500e-11     1.2800e-11     1.3000e-11     1.3300e-11     1.3500e-11
   15      9      1.0700e-12     2.8700e-12     3.8800e-12     4.1400e-12     4.2700e-12     4.3800e-12     4.4900e-12     4.6000e-12     4.7100e-12     4.8300e-12     4.9400e-12     5.0600e-12     5.1700e-12     5.2900e-12     5.4000e-12     5.5100e-12     5.6300e-12     5.7400e-12     5.8500e-12     5.9600e-12     6.0700e-12     6.1800e-12     6.2900e-12     6.4000e-12     6.5100e-12     6.6200e-12     6.7300e-12     6.8400e-12     6.9500e-12     7.0600e-12     7.1700e-12     7.2800e-12     7.3900e-12     7.5000e-12     7.6100e-12     7.7200e-12     7.8300e-12     7.9300e-12     8.0400e-12     8.1500e-12     8.2500e-12
   15     10      4.0500e-12     1.0700e-11     1.4300e-11     1.5300e-11     1.6000e-11     1.6600e-11     1.7200e-11     1.7800e-11     1.8500e-11     1.9100e-11     1.9800e-11     2.0500e-11     2.1100e-11     2.1800e-11     2.2400e-11     2.3000e-11     2.3600e-11     2.4200e-11     2.4800e-11     2.5400e-11     2.6000e-11     2.6500e-11     2.7000e-11     2.7600e-11     2.8100e-11     2.8600e-11     2.9100e-11     2.9500e-11     3.0000e-11     3.0500e-11     3.0900e-11     3.1300e-11     3.1800e-11     3.2200e-11     3.2600e-11     3.3000e-11     3.3400e-11     3.3800e-11     3.4200e-11     3.4600e-11     3.4900e-11
   15     11      4.5200e-12     1.2100e-11     1.6400e-11     1.7300e-11     1.7500e-11     1.7500e-11     1.7500e-11     1.7500e-11     1.7400e-11     1.7400e-11     1.7400e-11     1.7500e-11     1.7500e-11     1.7600e-11     1.7600e-11     1.7700e-11     1.7800e-11     1.7900e-11     1.8100e-11     1.8200e-11     1.8400e-11     1.8500e-11     1.8700e-11     1.8800e-11     1.9000e-11     1.9200e-11     1.9400e-11     1.9600e-11     1.9800e-11     2.0000e-11     2.0200e-11     2.0400e-11     2.0600e-11     2.0800e-11     2.1000e-11     2.1200e-11     2.1400e-11     2.1700e-11     2.1900e-11     2.2100e-11     2.2300e-11
   15     12      1.4100e-11     3.7300e-11     4.9300e-11     5.1800e-11     5.2800e-11     5.3600e-11     5.4300e-11     5.5000e-11     5.5600e-11     5.6300e-11     5.7000e-11     5.7600e-11     5.8200e-11     5.8800e-11     5.9400e-11     6.0000e-11     6.0600e-11     6.1100e-11     6.1600e-11     6.2100e-11     6.2600e-11     6.3100e-11     6.3600e-11     6.4000e-11     6.4500e-11     6.4900e-11     6.5300e-11     6.5700e-11     6.6100e-11     6.6500e-11     6.6900e-11     6.7200e-11     6.7600e-11     6.8000e-11     6.8300e-11     6.8600e-11     6.9000e-11     6.9300e-11     6.9600e-11     6.9900e-11     7.0200e-11
   15     13      2.1000e-11     5.6600e-11     7.7200e-11     8.1400e-11     8.2100e-11     8.2000e-11     8.1500e-11     8.1100e-11     8.0700e-11     8.0400e-11     8.0300e-11     8.0200e-11     8.0200e-11     8.0200e-11     8.0400e-11     8.0600e-11     8.0800e-11     8.1100e-11     8.1400e-11     8.1800e-11     8.2100e-11     8.2500e-11     8.2900e-11     8.3400e-11     8.3800e-11     8.4200e-11     8.4700e-11     8.5200e-11     8.5600e-11     8.6100e-11     8.6600e-11     8.7000e-11     8.7500e-11     8.8000e-11     8.8500e-11     8.8900e-11     8.9400e-11     8.9900e-11     9.0300e-11     9.0800e-11     9.1200e-11
   15     14      2.8400e-11     7.4900e-11     9.8500e-11     1.0300e-10     1.0400e-10     1.0400e-10     1.0400e-10     1.0300e-10     1.0300e-10     1.0300e-10     1.0300e-10     1.0300e-10     1.0300e-10     1.0300e-10     1.0300e-10     1.0300e-10     1.0300e-10     1.0300e-10     1.0300e-10     1.0400e-10     1.0400e-10     1.0400e-10     1.0400e-10     1.0400e-10     1.0400e-10     1.0500e-10     1.0500e-10     1.0500e-10     1.0500e-10     1.0500e-10     1.0600e-10     1.0600e-10     1.0600e-10     1.0600e-10     1.0600e-10     1.0700e-10     1.0700e-10     1.0700e-10     1.0700e-10     1.0700e-10     1.0800e-10
   15     15      1.3700e-10     4.1000e-10     7.7000e-10     1.0500e-09     1.2900e-09     1.4900e-09     1.6500e-09     1.7900e-09     1.9000e-09     2.0000e-09     2.0900e-09     2.1600e-09     2.2300e-09     2.2900e-09     2.3400e-09     2.3800e-09     2.4200e-09     2.4500e-09     2.4900e-09     2.5100e-09     2.5400e-09     2.5600e-09     2.5800e-09     2.6000e-09     2.6200e-09     2.6300e-09     2.6500e-09     2.6600e-09     2.6700e-09     2.6900e-09     2.7000e-09     2.7000e-09     2.7100e-09     2.7200e-09     2.7300e-09     2.7400e-09     2.7400e-09     2.7500e-09     2.7500e-09     2.7600e-09     2.7600e-09
   15     16      5.8000e-18     3.0400e-14     1.9400e-12     7.6700e-12     1.5200e-11     2.2800e-11     2.9800e-11     3.6000e-11     4.1500e-11     4.6400e-11     5.0700e-11     5.4500e-11     5.7900e-11     6.0900e-11     6.3700e-11     6.6200e-11     6.8500e-11     7.0600e-11     7.2600e-11     7.4400e-11     7.6100e-11     7.7600e-11     7.9100e-11     8.0500e-11     8.1800e-11     8.3000e-11     8.4200e-11     8.5300e-11     8.6300e-11     8.7300e-11     8.8300e-11     8.9200e-11     9.0000e-11     9.0900e-11     9.1700e-11     9.2500e-11     9.3200e-11     9.3900e-11     9.4600e-11     9.5300e-11     9.6000e-11
   15     17      1.4400e-26     1.5100e-18     1.2900e-14     2.5100e-13     1.0900e-12     2.6200e-12     4.6900e-12     7.0900e-12     9.6800e-12     1.2300e-11     1.5000e-11     1.7600e-11     2.0200e-11     2.2600e-11     2.5000e-11     2.7300e-11     2.9600e-11     3.1700e-11     3.3800e-11     3.5800e-11     3.7700e-11     3.9600e-11     4.1400e-11     4.3200e-11     4.4900e-11     4.6600e-11     4.8200e-11     4.9800e-11     5.1300e-11     5.2800e-11     5.4300e-11     5.5700e-11     5.7100e-11     5.8500e-11     5.9800e-11     6.1100e-11     6.2400e-11     6.3600e-11     6.4800e-11     6.6000e-11     6.7100e-11
   15     18      8.7500e-34     2.2700e-22     1.2500e-16     1.0400e-14     9.5400e-14     3.6200e-13     8.8400e-13     1.6800e-12     2.7200e-12     3.9700e-12     5.3900e-12     6.9300e-12     8.5500e-12     1.0200e-11     1.2000e-11     1.3700e-11     1.5400e-11     1.7100e-11     1.8800e-11     2.0500e-11     2.2100e-11     2.3800e-11     2.5300e-11     2.6900e-11     2.8400e-11     2.9900e-11     3.1300e-11     3.2700e-11     3.4100e-11     3.5400e-11     3.6700e-11     3.7900e-11     3.9200e-11     4.0400e-11     4.1500e-11     4.2700e-11     4.3800e-11     4.4900e-11     4.5900e-11     4.6900e-11     4.7900e-11
   15     19      5.1300e-43     3.0300e-27     2.2400e-19     1.0200e-16     2.1700e-15     1.3600e-14     4.6100e-14     1.1100e-13     2.1400e-13     3.5700e-13     5.4000e-13     7.5900e-13     1.0100e-12     1.2900e-12     1.5900e-12     1.9200e-12     2.2600e-12     2.6200e-12     2.9900e-12     3.3700e-12     3.7600e-12     4.1700e-12     4.5800e-12     4.9900e-12     5.4200e-12     5.8500e-12     6.2800e-12     6.7200e-12     7.1700e-12     7.6200e-12     8.0800e-12     8.5300e-12     9.0000e-12     9.4600e-12     9.9300e-12     1.0400e-11     1.0900e-11     1.1300e-11     1.1800e-11     1.2300e-11     1.2700e-11
   15     20          0.0000     5.8100e-32     1.5500e-21     4.2200e-18     2.1700e-16     2.3100e-15     1.1300e-14     3.5300e-14     8.3600e-14     1.6500e-13     2.8400e-13     4.4700e-13     6.5400e-13     9.0600e-13     1.2000e-12     1.5400e-12     1.9100e-12     2.3200e-12     2.7600e-12     3.2400e-12     3.7300e-12     4.2500e-12     4.7900e-12     5.3500e-12     5.9300e-12     6.5200e-12     7.1200e-12     7.7300e-12     8.3400e-12     8.9700e-12     9.6000e-12     1.0200e-11     1.0900e-11     1.1500e-11     1.2200e-11     1.2800e-11     1.3500e-11     1.4100e-11     1.4700e-11     1.5300e-11     1.6000e-11
   15     21          0.0000     9.1100e-38     9.9900e-25     2.0600e-20     2.9700e-18     5.9600e-17     4.4800e-16     1.9300e-15     5.8500e-15     1.4000e-14     2.8600e-14     5.1600e-14     8.5100e-14     1.3100e-13     1.9000e-13     2.6500e-13     3.5400e-13     4.6100e-13     5.8300e-13     7.2200e-13     8.7800e-13     1.0500e-12     1.2400e-12     1.4400e-12     1.6600e-12     1.8900e-12     2.1400e-12     2.4000e-12     2.6700e-12     2.9600e-12     3.2500e-12     3.5600e-12     3.8800e-12     4.2000e-12     4.5300e-12     4.8700e-12     5.2100e-12     5.5600e-12     5.9000e-12     6.2500e-12     6.5900e-12
   16      1      5.2700e-16     7.1200e-16     7.8400e-16     8.7100e-16     9.9600e-16     1.1600e-15     1.3800e-15     1.6400e-15     1.9700e-15     2.3700e-15     2.8400e-15     3.4000e-15     4.0400e-15     4.7900e-15     5.6500e-15     6.6100e-15     7.7000e-15     8.9100e-15     1.0200e-14     1.1700e-14     1.3300e-14     1.5000e-14     1.6900e-14     1.8900e-14     2.1100e-14     2.3300e-14     2.5700e-14     2.8300e-14     3.0900e-14     3.3700e-14     3.6600e-14     3.9600e-14     4.2700e-14     4.5900e-14     4.9200e-14     5.2600e-14     5.6000e-14     5.9600e-14     6.3200e-14     6.6800e-14     7.0500e-14
   16      2      2.7300e-15     3.6600e-15     3.9800e-15     4.3800e-15     4.9700e-15     5.7500e-15     6.7300e-15     7.9300e-15     9.3700e-15     1.1100e-14     1.3000e-14     1.5300e-14     1.7800e-14     2.0700e-14     2.3900e-14     2.7500e-14     3.1400e-14     3.5700e-14     4.0300e-14     4.5300e-14     5.0700e-14     5.6400e-14     6.2500e-14     6.9000e-14     7.5800e-14     8.3000e-14     9.0500e-14     9.8400e-14     1.0700e-13     1.1500e-13     1.2400e-13     1.3300e-13     1.4200e-13     1.5200e-13     1.6200e-13     1.7200e-13     1.8300e-13     1.9300e-13     2.0400e-13     2.1500e-13     2.2600e-13
   16      3      7.3500e-15     9.8700e-15     1.0700e-14     1.1500e-14     1.2800e-14     1.4500e-14     1.6700e-14     1.9300e-14     2.2500e-14     2.6200e-14     3.0500e-14     3.5500e-14     4.1200e-14     4.7600e-14     5.4800e-14     6.2700e-14     7.1400e-14     8.0800e-14     9.1100e-14     1.0200e-13     1.1400e-13     1.2600e-13     1.4000e-13     1.5400e-13     1.6900e-13     1.8400e-13     2.0000e-13     2.1700e-13     2.3400e-13     2.5200e-13     2.7000e-13     2.8900e-13     3.0900e-13     3.2900e-13     3.4900e-13     3.7000e-13     3.9100e-13     4.1200e-13     4.3400e-13     4.5600e-13     4.7700e-13
   16      4      2.4700e-14     3.2900e-14     3.4800e-14     3.7000e-14     4.0400e-14     4.4900e-14     5.0400e-14     5.6800e-14     6.4300e-14     7.2700e-14     8.2200e-14     9.2700e-14     1.0400e-13     1.1700e-13     1.3000e-13     1.4500e-13     1.6000e-13     1.7700e-13     1.9500e-13     2.1300e-13     2.3200e-13     2.5300e-13     2.7400e-13     2.9600e-13     3.1900e-13     3.4300e-13     3.6700e-13     3.9200e-13     4.1800e-13     4.4400e-13     4.7100e-13     4.9900e-13     5.2700e-13     5.5500e-13     5.8400e-13     6.1400e-13     6.4400e-13     6.7400e-13     7.0400e-13     7.3400e-13     7.6400e-13
   16      5      5.0500e-14     6.7900e-14     7.3100e-14     7.8600e-14     8.6500e-14     9.6700e-14     1.0900e-13     1.2400e-13     1.4100e-13     1.6000e-13     1.8200e-13     2.0600e-13     2.3300e-13     2.6200e-13     2.9300e-13     3.2600e-13     3.6100e-13     3.9900e-13     4.3800e-13     4.7800e-13     5.2100e-13     5.6500e-13     6.1000e-13     6.5700e-13     7.0500e-13     7.5400e-13     8.0400e-13     8.5500e-13     9.0600e-13     9.5900e-13     1.0100e-12     1.0700e-12     1.1200e-12     1.1800e-12     1.2300e-12     1.2900e-12     1.3400e-12     1.4000e-12     1.4600e-12     1.5100e-12     1.5700e-12
   16      6      1.4300e-13     1.9100e-13     2.0100e-13     2.1100e-13     2.2600e-13     2.4400e-13     2.6700e-13     2.9200e-13     3.2000e-13     3.5100e-13     3.8500e-13     4.2000e-13     4.5800e-13     4.9800e-13     5.4000e-13     5.8400e-13     6.2900e-13     6.7500e-13     7.2400e-13     7.7300e-13     8.2300e-13     8.7500e-13     9.2700e-13     9.8100e-13     1.0400e-12     1.0900e-12     1.1500e-12     1.2000e-12     1.2600e-12     1.3100e-12     1.3700e-12     1.4300e-12     1.4900e-12     1.5500e-12     1.6000e-12     1.6600e-12     1.7200e-12     1.7800e-12     1.8400e-12     1.8900e-12     1.9500e-12
   16      7      3.6800e-13     4.9100e-13     5.1800e-13     5.4700e-13     5.8900e-13     6.4300e-13     7.0600e-13     7.7800e-13     8.5900e-13     9.4700e-13     1.0400e-12     1.1400e-12     1.2500e-12     1.3600e-12     1.4700e-12     1.5900e-12     1.7100e-12     1.8400e-12     1.9600e-12     2.0900e-12     2.2200e-12     2.3500e-12     2.4800e-12     2.6200e-12     2.7500e-12     2.8800e-12     3.0200e-12     3.1500e-12     3.2900e-12     3.4200e-12     3.5600e-12     3.6900e-12     3.8200e-12     3.9600e-12     4.0900e-12     4.2200e-12     4.3600e-12     4.4900e-12     4.6200e-12     4.7500e-12     4.8800e-12
   16      8      7.2900e-13     9.7200e-13     1.0200e-12     1.0500e-12     1.1000e-12     1.1500e-12     1.2200e-12     1.2900e-12     1.3700e-12     1.4500e-12     1.5300e-12     1.6200e-12     1.7100e-12     1.8000e-12     1.8900e-12     1.9800e-12     2.0800e-12     2.1700e-12     2.2600e-12     2.3600e-12     2.4500e-12     2.5500e-12     2.6400e-12     2.7300e-12     2.8200e-12     2.9200e-12     3.0100e-12     3.1000e-12     3.1900e-12     3.2800e-12     3.3700e-12     3.4600e-12     3.5500e-12     3.6300e-12     3.7200e-12     3.8100e-12     3.8900e-12     3.9800e-12     4.0600e-12     4.1500e-12     4.2300e-12
   16      9      2.5600e-12     3.3800e-12     3.4900e-12     3.5800e-12     3.7400e-12     3.9500e-12     4.1900e-12     4.4500e-12     4.7300e-12     5.0300e-12     5.3400e-12     5.6600e-12     5.9800e-12     6.3000e-12     6.6300e-12     6.9600e-12     7.2900e-12     7.6100e-12     7.9400e-12     8.2600e-12     8.5800e-12     8.9000e-12     9.2100e-12     9.5200e-12     9.8300e-12     1.0100e-11     1.0400e-11     1.0700e-11     1.1000e-11     1.1300e-11     1.1600e-11     1.1900e-11     1.2200e-11     1.2400e-11     1.2700e-11     1.3000e-11     1.3200e-11     1.3500e-11     1.3800e-11     1.4000e-11     1.4300e-11
   16     10      3.1900e-12     4.2600e-12     4.4400e-12     4.5000e-12     4.5700e-12     4.6500e-12     4.7500e-12     4.8600e-12     4.9700e-12     5.0800e-12     5.1900e-12     5.3000e-12     5.4200e-12     5.5300e-12     5.6400e-12     5.7600e-12     5.8700e-12     5.9800e-12     6.0900e-12     6.2100e-12     6.3200e-12     6.4300e-12     6.5400e-12     6.6600e-12     6.7700e-12     6.8800e-12     6.9900e-12     7.1100e-12     7.2200e-12     7.3300e-12     7.4500e-12     7.5600e-12     7.6800e-12     7.7900e-12     7.9100e-12     8.0200e-12     8.1400e-12     8.2500e-12     8.3700e-12     8.4800e-12     8.5900e-12
   16     11      1.2900e-11     1.7000e-11     1.7300e-11     1.7500e-11     1.7800e-11     1.8300e-11     1.8800e-11     1.9400e-11     2.0100e-11     2.0700e-11     2.1400e-11     2.2000e-11     2.2600e-11     2.3300e-11     2.3900e-11     2.4500e-11     2.5100e-11     2.5700e-11     2.6300e-11     2.6800e-11     2.7400e-11     2.7900e-11     2.8400e-11     2.9000e-11     2.9500e-11     2.9900e-11     3.0400e-11     3.0900e-11     3.1300e-11     3.1800e-11     3.2200e-11     3.2700e-11     3.3100e-11     3.3500e-11     3.3900e-11     3.4300e-11     3.4700e-11     3.5100e-11     3.5400e-11     3.5800e-11     3.6100e-11
   16     12      1.2200e-11     1.6400e-11     1.7300e-11     1.7400e-11     1.7400e-11     1.7400e-11     1.7400e-11     1.7300e-11     1.7300e-11     1.7300e-11     1.7300e-11     1.7400e-11     1.7400e-11     1.7500e-11     1.7600e-11     1.7700e-11     1.7800e-11     1.7900e-11     1.8000e-11     1.8200e-11     1.8300e-11     1.8500e-11     1.8700e-11     1.8900e-11     1.9100e-11     1.9300e-11     1.9500e-11     1.9700e-11     1.9900e-11     2.0100e-11     2.0300e-11     2.0500e-11     2.0800e-11     2.1000e-11     2.1200e-11     2.1500e-11     2.1700e-11     2.1900e-11     2.2200e-11     2.2400e-11     2.2600e-11
   16     13      4.2600e-11     5.6200e-11     5.7100e-11     5.6800e-11     5.6900e-11     5.7300e-11     5.7700e-11     5.8200e-11     5.8700e-11     5.9300e-11     5.9900e-11     6.0400e-11     6.1000e-11     6.1600e-11     6.2100e-11     6.2600e-11     6.3100e-11     6.3600e-11     6.4100e-11     6.4600e-11     6.5000e-11     6.5500e-11     6.5900e-11     6.6300e-11     6.6700e-11     6.7100e-11     6.7500e-11     6.7900e-11     6.8200e-11     6.8600e-11     6.8900e-11     6.9300e-11     6.9600e-11     6.9900e-11     7.0300e-11     7.0600e-11     7.0900e-11     7.1200e-11     7.1500e-11     7.1800e-11     7.2000e-11
   16     14      5.3100e-11     7.1800e-11     7.6800e-11     7.8100e-11     7.8300e-11     7.8100e-11     7.7900e-11     7.7600e-11     7.7400e-11     7.7400e-11     7.7400e-11     7.7400e-11     7.7600e-11     7.7800e-11     7.8000e-11     7.8300e-11     7.8700e-11     7.9000e-11     7.9400e-11     7.9900e-11     8.0300e-11     8.0800e-11     8.1300e-11     8.1800e-11     8.2300e-11     8.2800e-11     8.3300e-11     8.3900e-11     8.4400e-11     8.4900e-11     8.5500e-11     8.6000e-11     8.6500e-11     8.7100e-11     8.7600e-11     8.8100e-11     8.8600e-11     8.9200e-11     8.9700e-11     9.0200e-11     9.0700e-11
   16     15      8.5500e-11     1.1300e-10     1.1500e-10     1.1400e-10     1.1300e-10     1.1200e-10     1.1100e-10     1.1000e-10     1.0900e-10     1.0900e-10     1.0900e-10     1.0800e-10     1.0800e-10     1.0800e-10     1.0800e-10     1.0800e-10     1.0800e-10     1.0800e-10     1.0800e-10     1.0800e-10     1.0800e-10     1.0800e-10     1.0800e-10     1.0800e-10     1.0800e-10     1.0800e-10     1.0800e-10     1.0800e-10     1.0900e-10     1.0900e-10     1.0900e-10     1.0900e-10     1.0900e-10     1.0900e-10     1.0900e-10     1.1000e-10     1.1000e-10     1.1000e-10     1.1000e-10     1.1000e-10     1.1000e-10
   16     16      4.3600e-10     6.3400e-10     8.7700e-10     1.1200e-09     1.3400e-09     1.5200e-09     1.6800e-09     1.8100e-09     1.9200e-09     2.0200e-09     2.1000e-09     2.1800e-09     2.2400e-09     2.3000e-09     2.3400e-09     2.3900e-09     2.4300e-09     2.4600e-09     2.4900e-09     2.5200e-09     2.5400e-09     2.5700e-09     2.5900e-09     2.6100e-09     2.6200e-09     2.6400e-09     2.6500e-09     2.6700e-09     2.6800e-09     2.6900e-09     2.7000e-09     2.7100e-09     2.7200e-09     2.7200e-09     2.7300e-09     2.7400e-09     2.7400e-09     2.7500e-09     2.7500e-09     2.7600e-09     2.7600e-09
   16     17      3.6200e-19     9.4400e-15     1.2200e-12     5.8300e-12     1.2500e-11     1.9700e-11     2.6500e-11     3.2800e-11     3.8300e-11     4.3300e-11     4.7800e-11     5.1700e-11     5.5300e-11     5.8500e-11     6.1500e-11     6.4100e-11     6.6600e-11     6.8800e-11     7.0900e-11     7.2900e-11     7.4700e-11     7.6400e-11     7.7900e-11     7.9400e-11     8.0800e-11     8.2200e-11     8.3400e-11     8.4600e-11     8.5800e-11     8.6900e-11     8.7900e-11     8.8900e-11     8.9900e-11     9.0800e-11     9.1700e-11     9.2600e-11     9.3400e-11     9.4200e-11     9.4900e-11     9.5700e-11     9.6300e-11
   16     18      1.2500e-26     8.6800e-19     8.2500e-15     1.7900e-13     8.3000e-13     2.0800e-12     3.8300e-12     5.9200e-12     8.2100e-12     1.0600e-11     1.3000e-11     1.5400e-11     1.7800e-11     2.0100e-11     2.2400e-11     2.4600e-11     2.6700e-11     2.8700e-11     3.0700e-11     3.2600e-11     3.4500e-11     3.6300e-11     3.8000e-11     3.9700e-11     4.1400e-11     4.3000e-11     4.4600e-11     4.6100e-11     4.7600e-11     4.9000e-11     5.0400e-11     5.1800e-11     5.3100e-11     5.4500e-11     5.5800e-11     5.7000e-11     5.8200e-11     5.9400e-11     6.0600e-11     6.1700e-11     6.2800e-11
   16     19      3.0700e-35     4.5400e-23     5.1400e-17     5.8000e-15     6.2100e-14     2.5800e-13     6.7000e-13     1.3300e-12     2.2200e-12     3.3300e-12     4.6000e-12     6.0100e-12     7.5200e-12     9.1000e-12     1.0700e-11     1.2400e-11     1.4000e-11     1.5700e-11     1.7300e-11     1.8900e-11     2.0500e-11     2.2100e-11     2.3700e-11     2.5200e-11     2.6700e-11     2.8100e-11     2.9500e-11     3.0900e-11     3.2300e-11     3.3600e-11     3.4900e-11     3.6200e-11     3.7400e-11     3.8600e-11     3.9800e-11     4.0900e-11     4.2000e-11     4.3100e-11     4.4200e-11     4.5200e-11     4.6200e-11
   16     20          0.0000     1.6300e-28     6.9600e-20     4.7500e-17     1.2100e-15     8.3500e-15     3.0200e-14     7.5400e-14     1.5000e-13     2.5600e-13     3.9300e-13     5.5900e-13     7.5200e-13     9.6800e-13     1.2100e-12     1.4600e-12     1.7300e-12     2.0200e-12     2.3200e-12     2.6300e-12     2.9500e-12     3.2800e-12     3.6200e-12     3.9700e-12     4.3300e-12     4.6900e-12     5.0700e-12     5.4500e-12     5.8400e-12     6.2300e-12     6.6300e-12     7.0400e-12     7.4500e-12     7.8700e-12     8.2900e-12     8.7200e-12     9.1400e-12     9.5600e-12     9.9900e-12     1.0400e-11     1.0800e-11
   16     21          0.0000     1.5600e-33     2.7000e-22     1.3900e-18     9.8600e-17     1.2900e-15     7.2100e-15     2.5000e-14     6.4200e-14     1.3500e-13     2.4600e-13     4.0400e-13     6.1400e-13     8.7900e-13     1.2000e-12     1.5800e-12     2.0100e-12     2.4900e-12     3.0200e-12     3.6000e-12     4.2300e-12     4.8900e-12     5.5800e-12     6.3100e-12     7.0700e-12     7.8600e-12     8.6700e-12     9.5000e-12     1.0400e-11     1.1200e-11     1.2100e-11     1.3000e-11     1.3900e-11     1.4800e-11     1.5700e-11     1.6600e-11     1.7500e-11     1.8500e-11     1.9400e-11     2.0200e-11     2.1100e-11
   17      1      4.4200e-17     1.7200e-16     2.9800e-16     3.7500e-16     4.5800e-16     5.6100e-16     6.8900e-16     8.5000e-16     1.0500e-15     1.2900e-15     1.5700e-15     1.9100e-15     2.3100e-15     2.7700e-15     3.2900e-15     3.8800e-15     4.5500e-15     5.3000e-15     6.1200e-15     7.0300e-15     8.0300e-15     9.1100e-15     1.0300e-14     1.1500e-14     1.2900e-14     1.4300e-14     1.5900e-14     1.7500e-14     1.9200e-14     2.1000e-14     2.2900e-14     2.4900e-14     2.7000e-14     2.9200e-14     3.1400e-14     3.3700e-14     3.6100e-14     3.8600e-14     4.1000e-14     4.3500e-14     4.6100e-14
   17      2      2.0700e-16     8.0200e-16     1.3700e-15     1.6800e-15     1.9900e-15     2.3600e-15     2.8200e-15     3.3800e-15     4.0700e-15     4.8900e-15     5.8600e-15     7.0100e-15     8.3500e-15     9.8900e-15     1.1700e-14     1.3700e-14     1.5900e-14     1.8400e-14     2.1200e-14     2.4300e-14     2.7700e-14     3.1300e-14     3.5300e-14     3.9500e-14     4.4100e-14     4.9000e-14     5.4200e-14     5.9600e-14     6.5400e-14     7.1500e-14     7.7800e-14     8.4400e-14     9.1300e-14     9.8500e-14     1.0600e-13     1.1400e-13     1.2100e-13     1.2900e-13     1.3700e-13     1.4600e-13     1.5400e-13
   17      3      7.6300e-16     2.9500e-15     4.9500e-15     6.0000e-15     7.0200e-15     8.1900e-15     9.5800e-15     1.1200e-14     1.3200e-14     1.5500e-14     1.8100e-14     2.1100e-14     2.4400e-14     2.8200e-14     3.2400e-14     3.7000e-14     4.2100e-14     4.7600e-14     5.3600e-14     6.0100e-14     6.7100e-14     7.4600e-14     8.2500e-14     9.1000e-14     9.9900e-14     1.0900e-13     1.1900e-13     1.3000e-13     1.4000e-13     1.5200e-13     1.6300e-13     1.7500e-13     1.8800e-13     2.0100e-13     2.1400e-13     2.2800e-13     2.4200e-13     2.5600e-13     2.7100e-13     2.8500e-13     3.0000e-13
   17      4      1.8300e-15     7.0900e-15     1.1900e-14     1.4200e-14     1.6400e-14     1.8900e-14     2.1900e-14     2.5400e-14     2.9500e-14     3.4300e-14     3.9800e-14     4.6100e-14     5.3100e-14     6.1000e-14     6.9800e-14     7.9400e-14     8.9900e-14     1.0100e-13     1.1400e-13     1.2700e-13     1.4100e-13     1.5600e-13     1.7200e-13     1.8800e-13     2.0600e-13     2.2400e-13     2.4300e-13     2.6200e-13     2.8200e-13     3.0300e-13     3.2500e-13     3.4700e-13     3.7000e-13     3.9300e-13     4.1700e-13     4.4100e-13     4.6600e-13     4.9000e-13     5.1500e-13     5.4000e-13     5.6500e-13
   17      5      5.5600e-15     2.1400e-14     3.5400e-14     4.2000e-14     4.7700e-14     5.3900e-14     6.1000e-14     6.8900e-14     7.8000e-14     8.8100e-14     9.9200e-14     1.1200e-13     1.2500e-13     1.3900e-13     1.5500e-13     1.7200e-13     1.9000e-13     2.0900e-13     2.2900e-13     2.5000e-13     2.7200e-13     2.9500e-13     3.1900e-13     3.4400e-13     3.6900e-13     3.9600e-13     4.2400e-13     4.5200e-13     4.8100e-13     5.1100e-13     5.4100e-13     5.7300e-13     6.0500e-13     6.3700e-13     6.7000e-13     7.0300e-13     7.3700e-13     7.7100e-13     8.0600e-13     8.4000e-13     8.7400e-13
   17      6      1.2100e-14     4.6500e-14     7.7300e-14     9.1900e-14     1.0500e-13     1.1900e-13     1.3500e-13     1.5300e-13     1.7400e-13     1.9700e-13     2.2300e-13     2.5100e-13     2.8200e-13     3.1500e-13     3.5100e-13     3.8800e-13     4.2800e-13     4.7000e-13     5.1400e-13     5.5900e-13     6.0600e-13     6.5500e-13     7.0500e-13     7.5600e-13     8.0800e-13     8.6200e-13     9.1600e-13     9.7100e-13     1.0300e-12     1.0800e-12     1.1400e-12     1.2000e-12     1.2600e-12     1.3200e-12     1.3800e-12     1.4400e-12     1.5000e-12     1.5500e-12     1.6100e-12     1.6700e-12     1.7300e-12
   17      7      3.0000e-14     1.1500e-13     1.9000e-13     2.2200e-13     2.4700e-13     2.7300e-13     3.0000e-13     3.3000e-13     3.6300e-13     3.9800e-13     4.3600e-13     4.7600e-13     5.1800e-13     5.6200e-13     6.0800e-13     6.5600e-13     7.0500e-13     7.5600e-13     8.0800e-13     8.6200e-13     9.1700e-13     9.7300e-13     1.0300e-12     1.0900e-12     1.1500e-12     1.2100e-12     1.2700e-12     1.3300e-12     1.3900e-12     1.4500e-12     1.5100e-12     1.5800e-12     1.6400e-12     1.7100e-12     1.7700e-12     1.8300e-12     1.9000e-12     1.9600e-12     2.0200e-12     2.0900e-12     2.1500e-12
   17      8      8.2200e-14     3.1600e-13     5.1600e-13     6.0400e-13     6.7400e-13     7.4600e-13     8.2400e-13     9.1000e-13     1.0000e-12     1.1000e-12     1.2100e-12     1.3200e-12     1.4300e-12     1.5500e-12     1.6700e-12     1.8000e-12     1.9300e-12     2.0600e-12     2.2000e-12     2.3300e-12     2.4700e-12     2.6000e-12     2.7400e-12     2.8800e-12     3.0200e-12     3.1600e-12     3.3000e-12     3.4400e-12     3.5700e-12     3.7100e-12     3.8500e-12     3.9900e-12     4.1200e-12     4.2600e-12     4.3900e-12     4.5300e-12     4.6600e-12     4.7900e-12     4.9200e-12     5.0500e-12     5.1700e-12
   17      9      1.4500e-13     5.5800e-13     9.0700e-13     1.0400e-12     1.1300e-12     1.2100e-12     1.2900e-12     1.3800e-12     1.4700e-12     1.5600e-12     1.6500e-12     1.7400e-12     1.8400e-12     1.9400e-12     2.0300e-12     2.1300e-12     2.2300e-12     2.3300e-12     2.4300e-12     2.5300e-12     2.6200e-12     2.7200e-12     2.8200e-12     2.9200e-12     3.0200e-12     3.1200e-12     3.2200e-12     3.3200e-12     3.4100e-12     3.5100e-12     3.6100e-12     3.7100e-12     3.8000e-12     3.9000e-12     3.9900e-12     4.0900e-12     4.1900e-12     4.2800e-12     4.3700e-12     4.4700e-12     4.5600e-12
   17     10      5.1500e-13     1.9700e-12     3.1700e-12     3.6200e-12     3.9400e-12     4.2300e-12     4.5300e-12     4.8400e-12     5.1500e-12     5.4800e-12     5.8100e-12     6.1400e-12     6.4800e-12     6.8200e-12     7.1600e-12     7.5000e-12     7.8300e-12     8.1700e-12     8.5000e-12     8.8200e-12     9.1500e-12     9.4700e-12     9.7800e-12     1.0100e-11     1.0400e-11     1.0700e-11     1.1000e-11     1.1300e-11     1.1600e-11     1.1900e-11     1.2100e-11     1.2400e-11     1.2700e-11     1.3000e-11     1.3200e-11     1.3500e-11     1.3700e-11     1.4000e-11     1.4200e-11     1.4500e-11     1.4700e-11
   17     11      6.0000e-13     2.3000e-12     3.7100e-12     4.1700e-12     4.4100e-12     4.5800e-12     4.7300e-12     4.8700e-12     5.0100e-12     5.1400e-12     5.2700e-12     5.3900e-12     5.5200e-12     5.6400e-12     5.7600e-12     5.8800e-12     6.0000e-12     6.1200e-12     6.2400e-12     6.3600e-12     6.4800e-12     6.6000e-12     6.7200e-12     6.8500e-12     6.9700e-12     7.1000e-12     7.2200e-12     7.3500e-12     7.4800e-12     7.6100e-12     7.7400e-12     7.8700e-12     8.0000e-12     8.1300e-12     8.2700e-12     8.4000e-12     8.5400e-12     8.6700e-12     8.8100e-12     8.9400e-12     9.0700e-12
   17     12      2.4300e-12     9.2600e-12     1.4700e-11     1.6500e-11     1.7600e-11     1.8400e-11     1.9200e-11     1.9900e-11     2.0700e-11     2.1400e-11     2.2100e-11     2.2800e-11     2.3500e-11     2.4100e-11     2.4800e-11     2.5400e-11     2.6000e-11     2.6600e-11     2.7200e-11     2.7700e-11     2.8300e-11     2.8800e-11     2.9300e-11     2.9800e-11     3.0300e-11     3.0800e-11     3.1200e-11     3.1700e-11     3.2100e-11     3.2600e-11     3.3000e-11     3.3400e-11     3.3800e-11     3.4200e-11     3.4600e-11     3.4900e-11     3.5300e-11     3.5700e-11     3.6000e-11     3.6300e-11     3.6700e-11
   17     13      2.1900e-12     8.4000e-12     1.3600e-11     1.5200e-11     1.5800e-11     1.6100e-11     1.6300e-11     1.6400e-11     1.6500e-11     1.6600e-11     1.6600e-11     1.6700e-11     1.6800e-11     1.7000e-11     1.7100e-11     1.7200e-11     1.7400e-11     1.7500e-11     1.7700e-11     1.7900e-11     1.8100e-11     1.8300e-11     1.8500e-11     1.8700e-11     1.9000e-11     1.9200e-11     1.9400e-11     1.9700e-11     2.0000e-11     2.0200e-11     2.0500e-11     2.0700e-11     2.1000e-11     2.1300e-11     2.1600e-11     2.1900e-11     2.2100e-11     2.2400e-11     2.2700e-11     2.3000e-11     2.3200e-11
   17     14      7.8600e-12     2.9900e-11     4.7000e-11     5.2000e-11     5.4200e-11     5.5700e-11     5.6800e-11     5.7800e-11     5.8600e-11     5.9400e-11     6.0200e-11     6.0900e-11     6.1600e-11     6.2200e-11     6.2800e-11     6.3400e-11     6.3900e-11     6.4400e-11     6.5000e-11     6.5500e-11     6.5900e-11     6.6400e-11     6.6800e-11     6.7200e-11     6.7700e-11     6.8100e-11     6.8400e-11     6.8800e-11     6.9200e-11     6.9500e-11     6.9900e-11     7.0200e-11     7.0600e-11     7.0900e-11     7.1200e-11     7.1500e-11     7.1800e-11     7.2100e-11     7.2300e-11     7.2600e-11     7.2900e-11
   17     15      9.4200e-12     3.6300e-11     5.9200e-11     6.6500e-11     6.9400e-11     7.0700e-11     7.1500e-11     7.2000e-11     7.2300e-11     7.2700e-11     7.3000e-11     7.3400e-11     7.3800e-11     7.4200e-11     7.4700e-11     7.5200e-11     7.5700e-11     7.6300e-11     7.6900e-11     7.7500e-11     7.8100e-11     7.8700e-11     7.9300e-11     8.0000e-11     8.0600e-11     8.1200e-11     8.1900e-11     8.2500e-11     8.3200e-11     8.3800e-11     8.4400e-11     8.5100e-11     8.5700e-11     8.6300e-11     8.7000e-11     8.7600e-11     8.8200e-11     8.8800e-11     8.9400e-11     8.9900e-11     9.0500e-11
   17     16      1.6100e-11     6.1100e-11     9.5300e-11     1.0400e-10     1.0700e-10     1.0800e-10     1.0900e-10     1.0900e-10     1.0900e-10     1.0900e-10     1.0900e-10     1.0900e-10     1.0900e-10     1.0900e-10     1.0900e-10     1.0900e-10     1.0900e-10     1.0900e-10     1.0900e-10     1.0900e-10     1.0900e-10     1.0900e-10     1.0900e-10     1.1000e-10     1.1000e-10     1.1000e-10     1.1000e-10     1.1000e-10     1.1000e-10     1.1100e-10     1.1100e-10     1.1100e-10     1.1100e-10     1.1100e-10     1.1200e-10     1.1200e-10     1.1200e-10     1.1200e-10     1.1300e-10     1.1300e-10     1.1300e-10
   17     17      7.8600e-11     3.3400e-10     7.2400e-10     1.0300e-09     1.2700e-09     1.4700e-09     1.6400e-09     1.7800e-09     1.9000e-09     2.0000e-09     2.0800e-09     2.1600e-09     2.2200e-09     2.2800e-09     2.3300e-09     2.3800e-09     2.4200e-09     2.4500e-09     2.4800e-09     2.5100e-09     2.5400e-09     2.5600e-09     2.5800e-09     2.6000e-09     2.6200e-09     2.6300e-09     2.6500e-09     2.6600e-09     2.6700e-09     2.6800e-09     2.6900e-09     2.7000e-09     2.7100e-09     2.7200e-09     2.7300e-09     2.7300e-09     2.7400e-09     2.7500e-09     2.7500e-09     2.7600e-09     2.7600e-09
   17     18      1.0500e-18     1.0500e-14     1.1500e-12     5.5400e-12     1.2100e-11     1.9200e-11     2.6000e-11     3.2400e-11     3.8100e-11     4.3200e-11     4.7800e-11     5.1900e-11     5.5600e-11     5.8900e-11     6.2000e-11     6.4800e-11     6.7300e-11     6.9600e-11     7.1800e-11     7.3800e-11     7.5600e-11     7.7400e-11     7.9000e-11     8.0500e-11     8.2000e-11     8.3300e-11     8.4600e-11     8.5900e-11     8.7000e-11     8.8100e-11     8.9200e-11     9.0200e-11     9.1200e-11     9.2100e-11     9.3000e-11     9.3900e-11     9.4700e-11     9.5500e-11     9.6200e-11     9.6900e-11     9.7600e-11
   17     19      1.2300e-27     2.7000e-19     4.0200e-15     1.0800e-13     5.6000e-13     1.5000e-12     2.8800e-12     4.6100e-12     6.5700e-12     8.6800e-12     1.0900e-11     1.3100e-11     1.5400e-11     1.7600e-11     1.9800e-11     2.2100e-11     2.4200e-11     2.6400e-11     2.8500e-11     3.0600e-11     3.2700e-11     3.4700e-11     3.6800e-11     3.8700e-11     4.0700e-11     4.2600e-11     4.4500e-11     4.6400e-11     4.8300e-11     5.0100e-11     5.1900e-11     5.3700e-11     5.5400e-11     5.7200e-11     5.8900e-11     6.0600e-11     6.2200e-11     6.3800e-11     6.5400e-11     6.6900e-11     6.8400e-11
   17     20      1.2100e-37     4.2900e-24     2.1800e-17     3.3700e-15     4.1000e-14     1.8300e-13     4.9600e-13     1.0100e-12     1.7400e-12     2.6600e-12     3.7300e-12     4.9400e-12     6.2600e-12     7.6500e-12     9.1100e-12     1.0600e-11     1.2100e-11     1.3700e-11     1.5200e-11     1.6800e-11     1.8300e-11     1.9800e-11     2.1300e-11     2.2800e-11     2.4300e-11     2.5700e-11     2.7200e-11     2.8600e-11     2.9900e-11     3.1300e-11     3.2600e-11     3.3900e-11     3.5200e-11     3.6500e-11     3.7700e-11     3.8900e-11     4.0100e-11     4.1200e-11     4.2400e-11     4.3400e-11     4.4500e-11
   17     21          0.0000     6.0500e-30     1.2600e-20     1.4700e-17     5.0000e-16     4.1700e-15     1.7400e-14     4.8500e-14     1.0600e-13     1.9500e-13     3.2100e-13     4.8600e-13     6.8900e-13     9.2900e-13     1.2100e-12     1.5200e-12     1.8600e-12     2.2300e-12     2.6200e-12     3.0500e-12     3.4900e-12     3.9500e-12     4.4300e-12     4.9200e-12     5.4300e-12     5.9600e-12     6.4900e-12     7.0300e-12     7.5800e-12     8.1400e-12     8.7000e-12     9.2700e-12     9.8400e-12     1.0400e-11     1.1000e-11     1.1600e-11     1.2100e-11     1.2700e-11     1.3300e-11     1.3800e-11     1.4300e-11
   18      1      1.8600e-16     1.5000e-16     1.5700e-16     1.8000e-16     2.1100e-16     2.5400e-16     3.1000e-16     3.8200e-16     4.7300e-16     5.8600e-16     7.2500e-16     8.9300e-16     1.0900e-15     1.3300e-15     1.6100e-15     1.9400e-15     2.3100e-15     2.7400e-15     3.2300e-15     3.7700e-15     4.3800e-15     5.0500e-15     5.8000e-15     6.6100e-15     7.5000e-15     8.4500e-15     9.4900e-15     1.0600e-14     1.1800e-14     1.3000e-14     1.4400e-14     1.5800e-14     1.7300e-14     1.8800e-14     2.0500e-14     2.2100e-14     2.3900e-14     2.5600e-14     2.7400e-14     2.9200e-14     3.1000e-14
   18      2      9.7300e-16     7.8200e-16     8.0900e-16     9.1400e-16     1.0600e-15     1.2600e-15     1.5200e-15     1.8400e-15     2.2500e-15     2.7400e-15     3.3300e-15     4.0300e-15     4.8600e-15     5.8100e-15     6.9200e-15     8.1700e-15     9.6000e-15     1.1200e-14     1.3000e-14     1.4900e-14     1.7100e-14     1.9500e-14     2.2100e-14     2.4800e-14     2.7900e-14     3.1100e-14     3.4500e-14     3.8200e-14     4.2100e-14     4.6200e-14     5.0500e-14     5.5100e-14     5.9800e-14     6.4800e-14     6.9900e-14     7.5200e-14     8.0700e-14     8.6200e-14     9.1900e-14     9.7500e-14     1.0300e-13
   18      3      3.2200e-15     2.5400e-15     2.5500e-15     2.8100e-15     3.1800e-15     3.6700e-15     4.3000e-15     5.0800e-15     6.0300e-15     7.1800e-15     8.5400e-15     1.0100e-14     1.2000e-14     1.4200e-14     1.6600e-14     1.9400e-14     2.2500e-14     2.6000e-14     2.9800e-14     3.4000e-14     3.8600e-14     4.3700e-14     4.9100e-14     5.4900e-14     6.1200e-14     6.7800e-14     7.4900e-14     8.2400e-14     9.0300e-14     9.8600e-14     1.0700e-13     1.1600e-13     1.2600e-13     1.3600e-13     1.4600e-13     1.5600e-13     1.6700e-13     1.7700e-13     1.8800e-13     1.9900e-13     2.1000e-13
   18      4      1.1400e-14     8.8400e-15     8.6000e-15     9.2600e-15     1.0300e-14     1.1600e-14     1.3300e-14     1.5400e-14     1.7800e-14     2.0700e-14     2.4000e-14     2.7700e-14     3.1900e-14     3.6700e-14     4.1900e-14     4.7700e-14     5.4000e-14     6.0900e-14     6.8400e-14     7.6500e-14     8.5100e-14     9.4300e-14     1.0400e-13     1.1500e-13     1.2600e-13     1.3700e-13     1.4900e-13     1.6200e-13     1.7500e-13     1.8900e-13     2.0300e-13     2.1800e-13     2.3300e-13     2.4900e-13     2.6500e-13     2.8100e-13     2.9800e-13     3.1500e-13     3.3200e-13     3.4900e-13     3.6600e-13
   18      5      2.4600e-14     1.9400e-14     1.9200e-14     2.0700e-14     2.3000e-14     2.5800e-14     2.9400e-14     3.3700e-14     3.8900e-14     4.4800e-14     5.1700e-14     5.9500e-14     6.8300e-14     7.8000e-14     8.8800e-14     1.0100e-13     1.1300e-13     1.2700e-13     1.4200e-13     1.5800e-13     1.7500e-13     1.9300e-13     2.1200e-13     2.3200e-13     2.5300e-13     2.7400e-13     2.9700e-13     3.2000e-13     3.4400e-13     3.6900e-13     3.9400e-13     4.2000e-13     4.4700e-13     4.7400e-13     5.0200e-13     5.3000e-13     5.5800e-13     5.8700e-13     6.1500e-13     6.4400e-13     6.7200e-13
   18      6      7.2300e-14     5.6200e-14     5.4100e-14     5.7300e-14     6.2300e-14     6.8700e-14     7.6400e-14     8.5500e-14     9.5900e-14     1.0800e-13     1.2100e-13     1.3500e-13     1.5100e-13     1.6800e-13     1.8700e-13     2.0600e-13     2.2700e-13     2.5000e-13     2.7300e-13     2.9800e-13     3.2300e-13     3.5000e-13     3.7800e-13     4.0700e-13     4.3700e-13     4.6800e-13     4.9900e-13     5.3200e-13     5.6500e-13     5.9900e-13     6.3400e-13     6.6900e-13     7.0500e-13     7.4200e-13     7.7800e-13     8.1600e-13     8.5300e-13     8.9100e-13     9.2800e-13     9.6500e-13     1.0000e-12
   18      7      1.5700e-13     1.2300e-13     1.2100e-13     1.2900e-13     1.4000e-13     1.5500e-13     1.7300e-13     1.9500e-13     2.1900e-13     2.4600e-13     2.7600e-13     3.0900e-13     3.4500e-13     3.8400e-13     4.2500e-13     4.6900e-13     5.1500e-13     5.6300e-13     6.1400e-13     6.6600e-13     7.2000e-13     7.7600e-13     8.3300e-13     8.9100e-13     9.5100e-13     1.0100e-12     1.0700e-12     1.1400e-12     1.2000e-12     1.2700e-12     1.3300e-12     1.4000e-12     1.4600e-12     1.5300e-12     1.6000e-12     1.6600e-12     1.7300e-12     1.8000e-12     1.8600e-12     1.9300e-12     1.9900e-12
   18      8      3.6100e-13     2.8200e-13     2.7300e-13     2.8600e-13     3.0500e-13     3.2900e-13     3.5800e-13     3.9000e-13     4.2600e-13     4.6500e-13     5.0700e-13     5.5200e-13     6.0000e-13     6.5000e-13     7.0200e-13     7.5600e-13     8.1200e-13     8.7000e-13     9.2900e-13     9.8900e-13     1.0500e-12     1.1100e-12     1.1800e-12     1.2400e-12     1.3100e-12     1.3700e-12     1.4400e-12     1.5100e-12     1.5800e-12     1.6400e-12     1.7100e-12     1.7800e-12     1.8500e-12     1.9200e-12     1.9900e-12     2.0500e-12     2.1200e-12     2.1900e-12     2.2500e-12     2.3200e-12     2.3800e-12
   18      9      1.0500e-12     8.1300e-13     7.7500e-13     8.0900e-13     8.6200e-13     9.2900e-13     1.0100e-12     1.1000e-12     1.2000e-12     1.3000e-12     1.4200e-12     1.5400e-12     1.6700e-12     1.8000e-12     1.9400e-12     2.0700e-12     2.2200e-12     2.3600e-12     2.5100e-12     2.6600e-12     2.8100e-12     2.9600e-12     3.1100e-12     3.2700e-12     3.4200e-12     3.5700e-12     3.7300e-12     3.8800e-12     4.0300e-12     4.1900e-12     4.3400e-12     4.4900e-12     4.6400e-12     4.7900e-12     4.9400e-12     5.0900e-12     5.2400e-12     5.3800e-12     5.5200e-12     5.6600e-12     5.8000e-12
   18     10      1.6600e-12     1.2900e-12     1.2400e-12     1.2800e-12     1.3400e-12     1.4000e-12     1.4800e-12     1.5600e-12     1.6500e-12     1.7500e-12     1.8400e-12     1.9400e-12     2.0500e-12     2.1500e-12     2.2600e-12     2.3600e-12     2.4700e-12     2.5800e-12     2.6800e-12     2.7900e-12     2.9000e-12     3.0000e-12     3.1100e-12     3.2100e-12     3.3200e-12     3.4200e-12     3.5200e-12     3.6300e-12     3.7300e-12     3.8300e-12     3.9300e-12     4.0200e-12     4.1200e-12     4.2200e-12     4.3100e-12     4.4100e-12     4.5000e-12     4.5900e-12     4.6800e-12     4.7700e-12     4.8500e-12
   18     11      6.0900e-12     4.7100e-12     4.4300e-12     4.5300e-12     4.7100e-12     4.9400e-12     5.2100e-12     5.5000e-12     5.8200e-12     6.1500e-12     6.4900e-12     6.8300e-12     7.1800e-12     7.5400e-12     7.9000e-12     8.2500e-12     8.6100e-12     8.9600e-12     9.3200e-12     9.6600e-12     1.0000e-11     1.0400e-11     1.0700e-11     1.1000e-11     1.1400e-11     1.1700e-11     1.2000e-11     1.2300e-11     1.2600e-11     1.3000e-11     1.3300e-11     1.3600e-11     1.3900e-11     1.4200e-11     1.4500e-11     1.4700e-11     1.5000e-11     1.5300e-11     1.5600e-11     1.5800e-11     1.6100e-11
   18     12      6.2800e-12     4.9400e-12     4.7400e-12     4.8300e-12     4.9200e-12     5.0200e-12     5.1300e-12     5.2400e-12     5.3600e-12     5.4800e-12     5.6000e-12     5.7300e-12     5.8500e-12     5.9700e-12     6.0900e-12     6.2200e-12     6.3400e-12     6.4600e-12     6.5700e-12     6.6900e-12     6.8100e-12     6.9300e-12     7.0400e-12     7.1600e-12     7.2700e-12     7.3900e-12     7.5100e-12     7.6200e-12     7.7400e-12     7.8500e-12     7.9600e-12     8.0800e-12     8.1900e-12     8.3100e-12     8.4200e-12     8.5400e-12     8.6500e-12     8.7600e-12     8.8700e-12     8.9800e-12     9.0800e-12
   18     13      2.6100e-11     2.0400e-11     1.9300e-11     1.9500e-11     1.9900e-11     2.0400e-11     2.1000e-11     2.1600e-11     2.2300e-11     2.3000e-11     2.3700e-11     2.4300e-11     2.5000e-11     2.5700e-11     2.6300e-11     2.7000e-11     2.7600e-11     2.8200e-11     2.8900e-11     2.9400e-11     3.0000e-11     3.0600e-11     3.1100e-11     3.1700e-11     3.2200e-11     3.2700e-11     3.3200e-11     3.3700e-11     3.4200e-11     3.4700e-11     3.5200e-11     3.5600e-11     3.6100e-11     3.6500e-11     3.6900e-11     3.7400e-11     3.7800e-11     3.8200e-11     3.8600e-11     3.8900e-11     3.9300e-11
   18     14      2.0100e-11     1.6100e-11     1.6000e-11     1.6300e-11     1.6500e-11     1.6600e-11     1.6600e-11     1.6600e-11     1.6600e-11     1.6700e-11     1.6700e-11     1.6800e-11     1.6900e-11     1.6900e-11     1.7000e-11     1.7200e-11     1.7300e-11     1.7400e-11     1.7600e-11     1.7700e-11     1.7900e-11     1.8100e-11     1.8200e-11     1.8400e-11     1.8600e-11     1.8800e-11     1.9000e-11     1.9200e-11     1.9400e-11     1.9700e-11     1.9900e-11     2.0100e-11     2.0300e-11     2.0600e-11     2.0800e-11     2.1000e-11     2.1300e-11     2.1500e-11     2.1700e-11     2.1900e-11     2.2100e-11
   18     15      7.7300e-11     6.1500e-11     5.9100e-11     5.9400e-11     5.9700e-11     6.0200e-11     6.0800e-11     6.1400e-11     6.2000e-11     6.2600e-11     6.3300e-11     6.3900e-11     6.4600e-11     6.5200e-11     6.5800e-11     6.6400e-11     6.7000e-11     6.7500e-11     6.8000e-11     6.8600e-11     6.9100e-11     6.9600e-11     7.0100e-11     7.0500e-11     7.1000e-11     7.1400e-11     7.1900e-11     7.2300e-11     7.2700e-11     7.3100e-11     7.3500e-11     7.3900e-11     7.4300e-11     7.4700e-11     7.5100e-11     7.5400e-11     7.5800e-11     7.6100e-11     7.6400e-11     7.6700e-11     7.7000e-11
   18     16      7.5000e-11     6.3200e-11     6.6200e-11     6.8800e-11     7.0000e-11     7.0500e-11     7.0700e-11     7.0800e-11     7.1000e-11     7.1200e-11     7.1400e-11     7.1700e-11     7.2000e-11     7.2400e-11     7.2800e-11     7.3300e-11     7.3800e-11     7.4300e-11     7.4800e-11     7.5400e-11     7.6000e-11     7.6500e-11     7.7100e-11     7.7700e-11     7.8300e-11     7.8900e-11     7.9500e-11     8.0100e-11     8.0800e-11     8.1400e-11     8.2000e-11     8.2600e-11     8.3200e-11     8.3800e-11     8.4400e-11     8.5000e-11     8.5600e-11     8.6200e-11     8.6700e-11     8.7200e-11     8.7700e-11
   18     17      1.4100e-10     1.1800e-10     1.1900e-10     1.1900e-10     1.1900e-10     1.1800e-10     1.1700e-10     1.1700e-10     1.1600e-10     1.1600e-10     1.1500e-10     1.1500e-10     1.1500e-10     1.1400e-10     1.1400e-10     1.1400e-10     1.1400e-10     1.1400e-10     1.1400e-10     1.1400e-10     1.1400e-10     1.1400e-10     1.1400e-10     1.1400e-10     1.1400e-10     1.1400e-10     1.1400e-10     1.1500e-10     1.1500e-10     1.1500e-10     1.1500e-10     1.1500e-10     1.1500e-10     1.1500e-10     1.1600e-10     1.1600e-10     1.1600e-10     1.1600e-10     1.1600e-10     1.1600e-10     1.1600e-10
   18     18      9.1800e-10     7.5300e-10     9.0600e-10     1.1400e-09     1.3500e-09     1.5400e-09     1.6900e-09     1.8200e-09     1.9400e-09     2.0300e-09     2.1100e-09     2.1800e-09     2.2500e-09     2.3000e-09     2.3500e-09     2.3900e-09     2.4300e-09     2.4700e-09     2.5000e-09     2.5200e-09     2.5500e-09     2.5700e-09     2.5900e-09     2.6100e-09     2.6300e-09     2.6400e-09     2.6600e-09     2.6700e-09     2.6800e-09     2.6900e-09     2.7000e-09     2.7100e-09     2.7200e-09     2.7300e-09     2.7300e-09     2.7400e-09     2.7500e-09     2.7500e-09     2.7600e-09     2.7600e-09     2.7700e-09
   18     19      3.5000e-19     6.3700e-15     8.1000e-13     4.4100e-12     1.0200e-11     1.6900e-11     2.3500e-11     2.9700e-11     3.5300e-11     4.0400e-11     4.4900e-11     4.9000e-11     5.2700e-11     5.6000e-11     5.9000e-11     6.1800e-11     6.4300e-11     6.6500e-11     6.8600e-11     7.0500e-11     7.2300e-11     7.4000e-11     7.5500e-11     7.7000e-11     7.8300e-11     7.9600e-11     8.0800e-11     8.2000e-11     8.3000e-11     8.4100e-11     8.5100e-11     8.6000e-11     8.6900e-11     8.7700e-11     8.8600e-11     8.9300e-11     9.0100e-11     9.0800e-11     9.1500e-11     9.2100e-11     9.2700e-11
   18     20      1.5900e-29     4.7600e-20     2.2600e-15     7.4200e-14     4.1600e-13     1.1600e-12     2.2900e-12     3.7100e-12     5.3400e-12     7.0900e-12     8.9100e-12     1.0800e-11     1.2600e-11     1.4500e-11     1.6300e-11     1.8100e-11     1.9900e-11     2.1700e-11     2.3400e-11     2.5100e-11     2.6800e-11     2.8500e-11     3.0200e-11     3.1800e-11     3.3500e-11     3.5100e-11     3.6700e-11     3.8300e-11     3.9800e-11     4.1400e-11     4.2900e-11     4.4500e-11     4.6000e-11     4.7500e-11     4.9000e-11     5.0400e-11     5.1800e-11     5.3200e-11     5.4600e-11     5.5900e-11     5.7200e-11
   18     21      2.9700e-40     3.8200e-25     7.2300e-18     1.7500e-15     2.6900e-14     1.3900e-13     4.1500e-13     9.1600e-13     1.6600e-12     2.6600e-12     3.8900e-12     5.3300e-12     6.9500e-12     8.7100e-12     1.0600e-11     1.2600e-11     1.4700e-11     1.6800e-11     1.8900e-11     2.1100e-11     2.3400e-11     2.5600e-11     2.7800e-11     3.0100e-11     3.2300e-11     3.4500e-11     3.6700e-11     3.8800e-11     4.1000e-11     4.3100e-11     4.5200e-11     4.7300e-11     4.9300e-11     5.1300e-11     5.3300e-11     5.5200e-11     5.7100e-11     5.8900e-11     6.0700e-11     6.2400e-11     6.4000e-11
   19      1      6.9600e-17     6.2600e-17     6.4700e-17     7.8500e-17     9.5900e-17     1.1900e-16     1.4900e-16     1.8900e-16     2.4000e-16     3.0400e-16     3.8400e-16     4.8200e-16     6.0000e-16     7.4200e-16     9.0900e-16     1.1000e-15     1.3300e-15     1.5900e-15     1.8800e-15     2.2100e-15     2.5800e-15     2.9900e-15     3.4400e-15     3.9300e-15     4.4700e-15     5.0600e-15     5.6800e-15     6.3600e-15     7.0800e-15     7.8500e-15     8.6600e-15     9.5200e-15     1.0400e-14     1.1400e-14     1.2300e-14     1.3300e-14     1.4400e-14     1.5400e-14     1.6500e-14     1.7500e-14     1.8600e-14
   19      2      4.0300e-16     3.5600e-16     3.4400e-16     3.9900e-16     4.7000e-16     5.6300e-16     6.8300e-16     8.3800e-16     1.0300e-15     1.2700e-15     1.5700e-15     1.9200e-15     2.3500e-15     2.8500e-15     3.4400e-15     4.1200e-15     4.9000e-15     5.7900e-15     6.8000e-15     7.9200e-15     9.1700e-15     1.0600e-14     1.2100e-14     1.3700e-14     1.5500e-14     1.7500e-14     1.9600e-14     2.1800e-14     2.4200e-14     2.6700e-14     2.9400e-14     3.2200e-14     3.5200e-14     3.8200e-14     4.1400e-14     4.4700e-14     4.8100e-14     5.1500e-14     5.4900e-14     5.8400e-14     6.1700e-14
   19      3      1.5700e-15     1.3800e-15     1.2900e-15     1.4600e-15     1.6900e-15     1.9900e-15     2.3600e-15     2.8300e-15     3.4100e-15     4.1100e-15     4.9400e-15     5.9100e-15     7.0500e-15     8.3600e-15     9.8500e-15     1.1500e-14     1.3400e-14     1.5500e-14     1.7800e-14     2.0400e-14     2.3200e-14     2.6200e-14     2.9500e-14     3.3000e-14     3.6800e-14     4.0800e-14     4.5000e-14     4.9500e-14     5.4200e-14     5.9200e-14     6.4400e-14     6.9900e-14     7.5500e-14     8.1400e-14     8.7400e-14     9.3600e-14     9.9900e-14     1.0600e-13     1.1300e-13     1.1900e-13     1.2500e-13
   19      4      4.3600e-15     3.8100e-15     3.5300e-15     3.9500e-15     4.4800e-15     5.1600e-15     6.0200e-15     7.0800e-15     8.3600e-15     9.8900e-15     1.1700e-14     1.3800e-14     1.6200e-14     1.8900e-14     2.2000e-14     2.5500e-14     2.9300e-14     3.3500e-14     3.8200e-14     4.3200e-14     4.8700e-14     5.4500e-14     6.0800e-14     6.7500e-14     7.4600e-14     8.2100e-14     9.0000e-14     9.8300e-14     1.0700e-13     1.1600e-13     1.2500e-13     1.3500e-13     1.4500e-13     1.5600e-13     1.6600e-13     1.7700e-13     1.8800e-13     2.0000e-13     2.1100e-13     2.2200e-13     2.3300e-13
   19      5      1.4300e-14     1.2400e-14     1.1100e-14     1.2100e-14     1.3500e-14     1.5300e-14     1.7400e-14     2.0000e-14     2.3100e-14     2.6600e-14     3.0700e-14     3.5200e-14     4.0400e-14     4.6000e-14     5.2300e-14     5.9100e-14     6.6500e-14     7.4500e-14     8.3000e-14     9.2100e-14     1.0200e-13     1.1200e-13     1.2300e-13     1.3400e-13     1.4600e-13     1.5800e-13     1.7100e-13     1.8400e-13     1.9800e-13     2.1200e-13     2.2700e-13     2.4100e-13     2.5700e-13     2.7200e-13     2.8800e-13     3.0400e-13     3.2100e-13     3.3700e-13     3.5300e-13     3.6900e-13     3.8500e-13
   19      6      3.0200e-14     2.6300e-14     2.4000e-14     2.6400e-14     2.9500e-14     3.3200e-14     3.7800e-14     4.3300e-14     4.9700e-14     5.7200e-14     6.5600e-14     7.5100e-14     8.5600e-14     9.7200e-14     1.1000e-13     1.2400e-13     1.3800e-13     1.5400e-13     1.7100e-13     1.8900e-13     2.0700e-13     2.2700e-13     2.4800e-13     2.6900e-13     2.9100e-13     3.1400e-13     3.3700e-13     3.6200e-13     3.8700e-13     4.1200e-13     4.3800e-13     4.6500e-13     4.9200e-13     5.2000e-13     5.4800e-13     5.7600e-13     6.0500e-13     6.3300e-13     6.6200e-13     6.9100e-13     7.1900e-13
   19      7      8.1600e-14     7.0800e-14     6.3000e-14     6.8200e-14     7.4700e-14     8.2600e-14     9.1900e-14     1.0300e-13     1.1500e-13     1.2900e-13     1.4400e-13     1.6100e-13     1.7900e-13     1.9900e-13     2.1900e-13     2.4100e-13     2.6500e-13     2.8900e-13     3.1400e-13     3.4100e-13     3.6800e-13     3.9600e-13     4.2500e-13     4.5500e-13     4.8500e-13     5.1600e-13     5.4800e-13     5.8000e-13     6.1300e-13     6.4600e-13     6.8000e-13     7.1400e-13     7.4800e-13     7.8200e-13     8.1700e-13     8.5100e-13     8.8600e-13     9.2000e-13     9.5400e-13     9.8700e-13     1.0200e-12
   19      8      1.8700e-13     1.6300e-13     1.4600e-13     1.5800e-13     1.7300e-13     1.9200e-13     2.1400e-13     2.3900e-13     2.6800e-13     3.0000e-13     3.3500e-13     3.7300e-13     4.1400e-13     4.5700e-13     5.0300e-13     5.5100e-13     6.0200e-13     6.5400e-13     7.0900e-13     7.6400e-13     8.2200e-13     8.8100e-13     9.4100e-13     1.0000e-12     1.0600e-12     1.1300e-12     1.1900e-12     1.2600e-12     1.3200e-12     1.3900e-12     1.4600e-12     1.5200e-12     1.5900e-12     1.6600e-12     1.7300e-12     1.8000e-12     1.8700e-12     1.9400e-12     2.0000e-12     2.0700e-12     2.1400e-12
   19      9      3.9200e-13     3.4000e-13     3.0200e-13     3.2400e-13     3.4900e-13     3.7800e-13     4.1100e-13     4.4800e-13     4.8900e-13     5.3300e-13     5.8100e-13     6.3100e-13     6.8300e-13     7.3800e-13     7.9400e-13     8.5200e-13     9.1100e-13     9.7100e-13     1.0300e-12     1.0900e-12     1.1600e-12     1.2200e-12     1.2800e-12     1.3500e-12     1.4100e-12     1.4800e-12     1.5400e-12     1.6000e-12     1.6700e-12     1.7300e-12     1.7900e-12     1.8600e-12     1.9200e-12     1.9800e-12     2.0400e-12     2.1000e-12     2.1600e-12     2.2200e-12     2.2800e-12     2.3300e-12     2.3900e-12
   19     10      1.1700e-12     1.0100e-12     8.8300e-13     9.3700e-13     1.0100e-12     1.0900e-12     1.1800e-12     1.2800e-12     1.3900e-12     1.5100e-12     1.6300e-12     1.7700e-12     1.9000e-12     2.0500e-12     2.1900e-12     2.3400e-12     2.4900e-12     2.6400e-12     2.8000e-12     2.9500e-12     3.1100e-12     3.2700e-12     3.4300e-12     3.5900e-12     3.7400e-12     3.9000e-12     4.0600e-12     4.2200e-12     4.3800e-12     4.5500e-12     4.7100e-12     4.8700e-12     5.0300e-12     5.1900e-12     5.3500e-12     5.5100e-12     5.6700e-12     5.8300e-12     5.9800e-12     6.1400e-12     6.2800e-12
   19     11      1.7200e-12     1.4900e-12     1.3100e-12     1.3800e-12     1.4500e-12     1.5300e-12     1.6200e-12     1.7100e-12     1.8100e-12     1.9200e-12     2.0200e-12     2.1300e-12     2.2400e-12     2.3500e-12     2.4600e-12     2.5800e-12     2.6800e-12     2.7900e-12     2.9000e-12     3.0100e-12     3.1100e-12     3.2100e-12     3.3100e-12     3.4100e-12     3.5100e-12     3.6100e-12     3.7000e-12     3.8000e-12     3.8900e-12     3.9800e-12     4.0700e-12     4.1500e-12     4.2400e-12     4.3200e-12     4.4100e-12     4.4900e-12     4.5700e-12     4.6500e-12     4.7200e-12     4.7900e-12     4.8600e-12
   19     12      6.3000e-12     5.4300e-12     4.6700e-12     4.8800e-12     5.1200e-12     5.4000e-12     5.7000e-12     6.0200e-12     6.3600e-12     6.7100e-12     7.0800e-12     7.4400e-12     7.8200e-12     8.1900e-12     8.5600e-12     8.9400e-12     9.3100e-12     9.6800e-12     1.0000e-11     1.0400e-11     1.0800e-11     1.1100e-11     1.1500e-11     1.1800e-11     1.2200e-11     1.2500e-11     1.2900e-11     1.3200e-11     1.3600e-11     1.3900e-11     1.4200e-11     1.4600e-11     1.4900e-11     1.5200e-11     1.5600e-11     1.5900e-11     1.6200e-11     1.6500e-11     1.6800e-11     1.7100e-11     1.7400e-11
   19     13      6.1300e-12     5.3200e-12     4.6500e-12     4.8400e-12     4.9900e-12     5.1300e-12     5.2600e-12     5.4000e-12     5.5400e-12     5.6800e-12     5.8300e-12     5.9700e-12     6.1100e-12     6.2400e-12     6.3800e-12     6.5100e-12     6.6400e-12     6.7700e-12     6.8900e-12     7.0100e-12     7.1300e-12     7.2500e-12     7.3700e-12     7.4900e-12     7.6100e-12     7.7200e-12     7.8400e-12     7.9500e-12     8.0700e-12     8.1900e-12     8.3000e-12     8.4200e-12     8.5400e-12     8.6500e-12     8.7700e-12     8.8800e-12     9.0000e-12     9.1100e-12     9.2200e-12     9.3300e-12     9.4300e-12
   19     14      2.5600e-11     2.2100e-11     1.9000e-11     1.9700e-11     2.0400e-11     2.1100e-11     2.1800e-11     2.2500e-11     2.3300e-11     2.4000e-11     2.4700e-11     2.5500e-11     2.6200e-11     2.6900e-11     2.7600e-11     2.8300e-11     2.8900e-11     2.9600e-11     3.0200e-11     3.0800e-11     3.1400e-11     3.2000e-11     3.2600e-11     3.3200e-11     3.3800e-11     3.4300e-11     3.4900e-11     3.5400e-11     3.5900e-11     3.6500e-11     3.7000e-11     3.7500e-11     3.8000e-11     3.8500e-11     3.9000e-11     3.9500e-11     4.0000e-11     4.0400e-11     4.0900e-11     4.1300e-11     4.1700e-11
   19     15      1.8300e-11     1.6100e-11     1.4400e-11     1.5100e-11     1.5400e-11     1.5600e-11     1.5700e-11     1.5800e-11     1.5900e-11     1.6100e-11     1.6200e-11     1.6400e-11     1.6500e-11     1.6700e-11     1.6900e-11     1.7100e-11     1.7300e-11     1.7500e-11     1.7700e-11     1.8000e-11     1.8300e-11     1.8500e-11     1.8800e-11     1.9100e-11     1.9400e-11     1.9700e-11     2.0000e-11     2.0300e-11     2.0700e-11     2.1000e-11     2.1300e-11     2.1700e-11     2.2000e-11     2.2400e-11     2.2700e-11     2.3100e-11     2.3400e-11     2.3800e-11     2.4100e-11     2.4500e-11     2.4800e-11
   19     16      7.4500e-11     6.4800e-11     5.6100e-11     5.8000e-11     5.9400e-11     6.0400e-11     6.1300e-11     6.2200e-11     6.3000e-11     6.3700e-11     6.4500e-11     6.5200e-11     6.5900e-11     6.6500e-11     6.7100e-11     6.7700e-11     6.8300e-11     6.8800e-11     6.9400e-11     6.9900e-11     7.0400e-11     7.0900e-11     7.1300e-11     7.1800e-11     7.2200e-11     7.2700e-11     7.3100e-11     7.3500e-11     7.4000e-11     7.4400e-11     7.4800e-11     7.5200e-11     7.5600e-11     7.5900e-11     7.6300e-11     7.6700e-11     7.7000e-11     7.7400e-11     7.7700e-11     7.8000e-11     7.8300e-11
   19     17      6.6800e-11     5.9500e-11     5.6300e-11     6.0500e-11     6.2600e-11     6.3600e-11     6.4400e-11     6.5000e-11     6.5600e-11     6.6300e-11     6.7000e-11     6.7800e-11     6.8600e-11     6.9500e-11     7.0400e-11     7.1400e-11     7.2400e-11     7.3400e-11     7.4400e-11     7.5500e-11     7.6600e-11     7.7800e-11     7.8900e-11     8.0000e-11     8.1200e-11     8.2400e-11     8.3500e-11     8.4700e-11     8.5800e-11     8.7000e-11     8.8200e-11     8.9300e-11     9.0500e-11     9.1600e-11     9.2700e-11     9.3800e-11     9.4900e-11     9.6000e-11     9.7000e-11     9.8000e-11     9.8900e-11
   19     18      1.4200e-10     1.2500e-10     1.1000e-10     1.1400e-10     1.1600e-10     1.1700e-10     1.1600e-10     1.1600e-10     1.1600e-10     1.1500e-10     1.1500e-10     1.1400e-10     1.1400e-10     1.1400e-10     1.1400e-10     1.1300e-10     1.1300e-10     1.1300e-10     1.1300e-10     1.1300e-10     1.1200e-10     1.1200e-10     1.1200e-10     1.1200e-10     1.1200e-10     1.1200e-10     1.1200e-10     1.1200e-10     1.1200e-10     1.1200e-10     1.1200e-10     1.1200e-10     1.1200e-10     1.1200e-10     1.1200e-10     1.1200e-10     1.1200e-10     1.1200e-10     1.1200e-10     1.1200e-10     1.1200e-10
   19     19      8.6300e-10     7.9400e-10     9.5500e-10     1.1900e-09     1.3900e-09     1.5600e-09     1.7100e-09     1.8300e-09     1.9400e-09     2.0400e-09     2.1200e-09     2.1900e-09     2.2500e-09     2.3100e-09     2.3500e-09     2.4000e-09     2.4400e-09     2.4700e-09     2.5000e-09     2.5300e-09     2.5600e-09     2.5800e-09     2.6000e-09     2.6200e-09     2.6400e-09     2.6600e-09     2.6700e-09     2.6800e-09     2.7000e-09     2.7100e-09     2.7200e-09     2.7300e-09     2.7400e-09     2.7500e-09     2.7600e-09     2.7600e-09     2.7700e-09     2.7800e-09     2.7800e-09     2.7900e-09     2.7900e-09
   19     20      1.5200e-20     2.1700e-15     6.9600e-13     4.2600e-12     1.0200e-11     1.7100e-11     2.4100e-11     3.0600e-11     3.6700e-11     4.2300e-11     4.7400e-11     5.2100e-11     5.6500e-11     6.0500e-11     6.4200e-11     6.7700e-11     7.0900e-11     7.4000e-11     7.6800e-11     7.9600e-11     8.2100e-11     8.4600e-11     8.6900e-11     8.9100e-11     9.1200e-11     9.3300e-11     9.5200e-11     9.7100e-11     9.8900e-11     1.0100e-10     1.0200e-10     1.0400e-10     1.0500e-10     1.0700e-10     1.0800e-10     1.1000e-10     1.1100e-10     1.1200e-10     1.1400e-10     1.1500e-10     1.1600e-10
   19     21      8.5800e-32     5.3300e-21     7.0000e-16     3.2200e-14     2.1400e-13     6.6700e-13     1.4300e-12     2.4600e-12     3.7300e-12     5.1600e-12     6.7100e-12     8.3500e-12     1.0000e-11     1.1800e-11     1.3500e-11     1.5200e-11     1.7000e-11     1.8700e-11     2.0400e-11     2.2100e-11     2.3700e-11     2.5400e-11     2.7000e-11     2.8500e-11     3.0100e-11     3.1600e-11     3.3100e-11     3.4600e-11     3.6000e-11     3.7500e-11     3.8900e-11     4.0300e-11     4.1600e-11     4.2900e-11     4.4200e-11     4.5500e-11     4.6700e-11     4.7900e-11     4.9100e-11     5.0200e-11     5.1200e-11
   20      1      3.9600e-18     1.6300e-17     2.9900e-17     3.6200e-17     4.3000e-17     5.1900e-17     6.4000e-17     8.0100e-17     1.0100e-16     1.2800e-16     1.6300e-16     2.0700e-16     2.6100e-16     3.2700e-16     4.0700e-16     5.0400e-16     6.1800e-16     7.5300e-16     9.1000e-16     1.0900e-15     1.3000e-15     1.5400e-15     1.8100e-15     2.1100e-15     2.4500e-15     2.8300e-15     3.2400e-15     3.6900e-15     4.1900e-15     4.7300e-15     5.3100e-15     5.9400e-15     6.6100e-15     7.3200e-15     8.0600e-15     8.8300e-15     9.6300e-15     1.0400e-14     1.1300e-14     1.2100e-14     1.2900e-14
   20      2      2.0600e-17     8.4200e-17     1.5400e-16     1.8500e-16     2.1600e-16     2.5800e-16     3.1300e-16     3.8600e-16     4.8000e-16     5.9900e-16     7.4700e-16     9.3000e-16     1.1500e-15     1.4200e-15     1.7400e-15     2.1200e-15     2.5700e-15     3.0800e-15     3.6800e-15     4.3500e-15     5.1200e-15     5.9800e-15     6.9500e-15     8.0200e-15     9.2100e-15     1.0500e-14     1.1900e-14     1.3500e-14     1.5200e-14     1.7000e-14     1.9000e-14     2.1000e-14     2.3300e-14     2.5600e-14     2.8000e-14     3.0600e-14     3.3200e-14     3.5800e-14     3.8500e-14     4.1100e-14     4.3800e-14
   20      3      6.9900e-17     2.8500e-16     5.1600e-16     6.1000e-16     7.0000e-16     8.1500e-16     9.6500e-16     1.1600e-15     1.4000e-15     1.7100e-15     2.0800e-15     2.5300e-15     3.0700e-15     3.7200e-15     4.4800e-15     5.3600e-15     6.3800e-15     7.5500e-15     8.8800e-15     1.0400e-14     1.2100e-14     1.3900e-14     1.6000e-14     1.8300e-14     2.0800e-14     2.3500e-14     2.6500e-14     2.9700e-14     3.3100e-14     3.6800e-14     4.0700e-14     4.4900e-14     4.9300e-14     5.3900e-14     5.8700e-14     6.3600e-14     6.8600e-14     7.3700e-14     7.8700e-14     8.3800e-14     8.8700e-14
   20      4      2.4100e-16     9.8100e-16     1.7600e-15     2.0500e-15     2.3100e-15     2.6400e-15     3.0600e-15     3.5800e-15     4.2300e-15     5.0200e-15     5.9700e-15     7.0800e-15     8.3900e-15     9.9000e-15     1.1600e-14     1.3600e-14     1.5800e-14     1.8400e-14     2.1100e-14     2.4200e-14     2.7600e-14     3.1400e-14     3.5400e-14     3.9800e-14     4.4600e-14     4.9700e-14     5.5200e-14     6.1000e-14     6.7300e-14     7.3800e-14     8.0800e-14     8.8100e-14     9.5700e-14     1.0400e-13     1.1200e-13     1.2000e-13     1.2900e-13     1.3700e-13     1.4600e-13     1.5400e-13     1.6300e-13
   20      5      6.0500e-16     2.4600e-15     4.3900e-15     5.0800e-15     5.6800e-15     6.4100e-15     7.3300e-15     8.4800e-15     9.9000e-15     1.1600e-14     1.3600e-14     1.6000e-14     1.8700e-14     2.1800e-14     2.5400e-14     2.9400e-14     3.3900e-14     3.8800e-14     4.4300e-14     5.0300e-14     5.6800e-14     6.3900e-14     7.1500e-14     7.9600e-14     8.8300e-14     9.7600e-14     1.0700e-13     1.1800e-13     1.2900e-13     1.4000e-13     1.5200e-13     1.6400e-13     1.7700e-13     1.9000e-13     2.0400e-13     2.1800e-13     2.3100e-13     2.4500e-13     2.5900e-13     2.7300e-13     2.8600e-13
   20      6      1.7300e-15     7.0300e-15     1.2500e-14     1.4300e-14     1.5700e-14     1.7500e-14     1.9600e-14     2.2200e-14     2.5400e-14     2.9000e-14     3.3300e-14     3.8200e-14     4.3700e-14     4.9900e-14     5.6800e-14     6.4400e-14     7.2700e-14     8.1800e-14     9.1700e-14     1.0200e-13     1.1400e-13     1.2600e-13     1.3900e-13     1.5200e-13     1.6700e-13     1.8200e-13     1.9800e-13     2.1500e-13     2.3200e-13     2.5000e-13     2.6900e-13     2.8800e-13     3.0800e-13     3.2800e-13     3.4900e-13     3.7000e-13     3.9100e-13     4.1200e-13     4.3300e-13     4.5300e-13     4.7300e-13
   20      7      3.9200e-15     1.5900e-14     2.8100e-14     3.2200e-14     3.5400e-14     3.9100e-14     4.3800e-14     4.9400e-14     5.6100e-14     6.3900e-14     7.2900e-14     8.3100e-14     9.4500e-14     1.0700e-13     1.2100e-13     1.3600e-13     1.5300e-13     1.7000e-13     1.8900e-13     2.1000e-13     2.3100e-13     2.5300e-13     2.7700e-13     3.0200e-13     3.2700e-13     3.5400e-13     3.8100e-13     4.1000e-13     4.3900e-13     4.6900e-13     5.0000e-13     5.3100e-13     5.6300e-13     5.9600e-13     6.2900e-13     6.6200e-13     6.9500e-13     7.2800e-13     7.6000e-13     7.9200e-13     8.2300e-13
   20      8      9.2900e-15     3.7600e-14     6.6400e-14     7.5200e-14     8.1700e-14     8.9000e-14     9.7700e-14     1.0800e-13     1.2000e-13     1.3400e-13     1.5000e-13     1.6700e-13     1.8600e-13     2.0700e-13     2.3000e-13     2.5400e-13     2.8000e-13     3.0700e-13     3.3600e-13     3.6600e-13     3.9800e-13     4.3200e-13     4.6600e-13     5.0200e-13     5.3900e-13     5.7700e-13     6.1600e-13     6.5700e-13     6.9800e-13     7.4000e-13     7.8300e-13     8.2700e-13     8.7100e-13     9.1600e-13     9.6100e-13     1.0100e-12     1.0500e-12     1.1000e-12     1.1400e-12     1.1800e-12     1.2200e-12
   20      9      2.3200e-14     9.3800e-14     1.6500e-13     1.8700e-13     2.0200e-13     2.2000e-13     2.4000e-13     2.6500e-13     2.9300e-13     3.2500e-13     3.6000e-13     3.9900e-13     4.4000e-13     4.8500e-13     5.3300e-13     5.8400e-13     6.3600e-13     6.9200e-13     7.4900e-13     8.0900e-13     8.7000e-13     9.3300e-13     9.9700e-13     1.0600e-12     1.1300e-12     1.2000e-12     1.2700e-12     1.3400e-12     1.4100e-12     1.4800e-12     1.5500e-12     1.6200e-12     1.7000e-12     1.7700e-12     1.8400e-12     1.9100e-12     1.9900e-12     2.0600e-12     2.1300e-12     2.1900e-12     2.2600e-12
   20     10      4.4200e-14     1.7900e-13     3.1300e-13     3.5100e-13     3.7500e-13     4.0000e-13     4.2900e-13     4.6300e-13     5.0200e-13     5.4400e-13     5.9100e-13     6.4100e-13     6.9500e-13     7.5200e-13     8.1200e-13     8.7400e-13     9.3900e-13     1.0100e-12     1.0700e-12     1.1500e-12     1.2200e-12     1.2900e-12     1.3700e-12     1.4400e-12     1.5200e-12     1.6000e-12     1.6800e-12     1.7600e-12     1.8400e-12     1.9200e-12     2.0000e-12     2.0800e-12     2.1700e-12     2.2500e-12     2.3300e-12     2.4100e-12     2.4900e-12     2.5700e-12     2.6400e-12     2.7200e-12     2.7900e-12
   20     11      1.3200e-13     5.3200e-13     9.2900e-13     1.0400e-12     1.1000e-12     1.1700e-12     1.2500e-12     1.3400e-12     1.4400e-12     1.5500e-12     1.6600e-12     1.7900e-12     1.9200e-12     2.0600e-12     2.2000e-12     2.3400e-12     2.4900e-12     2.6400e-12     2.7900e-12     2.9400e-12     3.0900e-12     3.2500e-12     3.4000e-12     3.5600e-12     3.7100e-12     3.8700e-12     4.0300e-12     4.1800e-12     4.3400e-12     4.4900e-12     4.6400e-12     4.8000e-12     4.9500e-12     5.1000e-12     5.2500e-12     5.4000e-12     5.5500e-12     5.6900e-12     5.8300e-12     5.9700e-12     6.1000e-12
   20     12      1.8800e-13     7.5600e-13     1.3100e-12     1.4500e-12     1.5200e-12     1.5800e-12     1.6500e-12     1.7200e-12     1.8100e-12     1.9000e-12     2.0000e-12     2.1000e-12     2.2100e-12     2.3200e-12     2.4300e-12     2.5500e-12     2.6600e-12     2.7800e-12     2.9000e-12     3.0200e-12     3.1500e-12     3.2700e-12     3.3900e-12     3.5100e-12     3.6300e-12     3.7600e-12     3.8800e-12     4.0000e-12     4.1200e-12     4.2400e-12     4.3600e-12     4.4800e-12     4.6000e-12     4.7200e-12     4.8300e-12     4.9500e-12     5.0600e-12     5.1700e-12     5.2800e-12     5.3800e-12     5.4800e-12
   20     13      6.5500e-13     2.6300e-12     4.5600e-12     5.0100e-12     5.2300e-12     5.4400e-12     5.6600e-12     5.9200e-12     6.2000e-12     6.4900e-12     6.8000e-12     7.1200e-12     7.4500e-12     7.7800e-12     8.1200e-12     8.4600e-12     8.8000e-12     9.1300e-12     9.4700e-12     9.8000e-12     1.0100e-11     1.0500e-11     1.0800e-11     1.1100e-11     1.1400e-11     1.1700e-11     1.2000e-11     1.2400e-11     1.2700e-11     1.3000e-11     1.3300e-11     1.3600e-11     1.3900e-11     1.4100e-11     1.4400e-11     1.4700e-11     1.5000e-11     1.5200e-11     1.5500e-11     1.5800e-11     1.6000e-11
   20     14      6.5000e-13     2.6100e-12     4.5200e-12     4.9200e-12     5.0500e-12     5.1200e-12     5.1800e-12     5.2600e-12     5.3500e-12     5.4500e-12     5.5500e-12     5.6600e-12     5.7800e-12     5.9000e-12     6.0200e-12     6.1500e-12     6.2800e-12     6.4200e-12     6.5500e-12     6.6900e-12     6.8300e-12     6.9700e-12     7.1200e-12     7.2700e-12     7.4100e-12     7.5700e-12     7.7200e-12     7.8700e-12     8.0300e-12     8.1800e-12     8.3400e-12     8.5000e-12     8.6600e-12     8.8300e-12     8.9900e-12     9.1500e-12     9.3000e-12     9.4600e-12     9.6100e-12     9.7500e-12     9.8900e-12
   20     15      2.6100e-12     1.0500e-11     1.8000e-11     1.9500e-11     2.0100e-11     2.0500e-11     2.0900e-11     2.1400e-11     2.2000e-11     2.2500e-11     2.3100e-11     2.3700e-11     2.4300e-11     2.4900e-11     2.5500e-11     2.6100e-11     2.6700e-11     2.7300e-11     2.7900e-11     2.8500e-11     2.9000e-11     2.9600e-11     3.0100e-11     3.0600e-11     3.1200e-11     3.1700e-11     3.2200e-11     3.2700e-11     3.3200e-11     3.3700e-11     3.4100e-11     3.4600e-11     3.5100e-11     3.5500e-11     3.6000e-11     3.6400e-11     3.6800e-11     3.7300e-11     3.7700e-11     3.8000e-11     3.8400e-11
   20     16      1.9600e-12     7.9000e-12     1.3700e-11     1.4900e-11     1.5100e-11     1.5100e-11     1.5000e-11     1.5000e-11     1.4900e-11     1.4900e-11     1.4900e-11     1.4900e-11     1.5000e-11     1.5000e-11     1.5100e-11     1.5300e-11     1.5400e-11     1.5600e-11     1.5800e-11     1.6000e-11     1.6200e-11     1.6400e-11     1.6700e-11     1.6900e-11     1.7200e-11     1.7500e-11     1.7800e-11     1.8100e-11     1.8400e-11     1.8800e-11     1.9100e-11     1.9500e-11     1.9800e-11     2.0200e-11     2.0500e-11     2.0900e-11     2.1300e-11     2.1600e-11     2.2000e-11     2.2300e-11     2.2600e-11
   20     17      8.0400e-12     3.2100e-11     5.4900e-11     5.9000e-11     5.9900e-11     6.0200e-11     6.0400e-11     6.0700e-11     6.1200e-11     6.1700e-11     6.2300e-11     6.2900e-11     6.3500e-11     6.4100e-11     6.4800e-11     6.5500e-11     6.6100e-11     6.6800e-11     6.7400e-11     6.8100e-11     6.8700e-11     6.9300e-11     7.0000e-11     7.0600e-11     7.1200e-11     7.1700e-11     7.2300e-11     7.2900e-11     7.3500e-11     7.4000e-11     7.4600e-11     7.5100e-11     7.5600e-11     7.6200e-11     7.6700e-11     7.7200e-11     7.7700e-11     7.8100e-11     7.8500e-11     7.8900e-11     7.9300e-11
   20     18      7.8600e-12     3.1700e-11     5.5100e-11     6.0300e-11     6.1600e-11     6.1800e-11     6.1800e-11     6.1600e-11     6.1600e-11     6.1600e-11     6.1600e-11     6.1800e-11     6.2100e-11     6.2500e-11     6.2900e-11     6.3400e-11     6.4000e-11     6.4700e-11     6.5400e-11     6.6100e-11     6.6900e-11     6.7700e-11     6.8600e-11     6.9400e-11     7.0300e-11     7.1300e-11     7.2200e-11     7.3200e-11     7.4100e-11     7.5100e-11     7.6100e-11     7.7100e-11     7.8100e-11     7.9100e-11     8.0100e-11     8.1100e-11     8.2100e-11     8.3000e-11     8.3900e-11     8.4800e-11     8.5600e-11
   20     19      1.8600e-11     7.3800e-11     1.2500e-10     1.3300e-10     1.3400e-10     1.3200e-10     1.3100e-10     1.3000e-10     1.2900e-10     1.2900e-10     1.2800e-10     1.2800e-10     1.2800e-10     1.2900e-10     1.2900e-10     1.2900e-10     1.3000e-10     1.3000e-10     1.3100e-10     1.3100e-10     1.3200e-10     1.3200e-10     1.3300e-10     1.3300e-10     1.3400e-10     1.3500e-10     1.3500e-10     1.3600e-10     1.3600e-10     1.3700e-10     1.3800e-10     1.3800e-10     1.3900e-10     1.3900e-10     1.4000e-10     1.4100e-10     1.4100e-10     1.4200e-10     1.4200e-10     1.4300e-10     1.4300e-10
   20     20      9.2300e-11     4.1000e-10     8.6400e-10     1.1400e-09     1.3600e-09     1.5500e-09     1.7000e-09     1.8300e-09     1.9400e-09     2.0300e-09     2.1100e-09     2.1800e-09     2.2400e-09     2.3000e-09     2.3400e-09     2.3800e-09     2.4200e-09     2.4500e-09     2.4800e-09     2.5100e-09     2.5400e-09     2.5600e-09     2.5800e-09     2.6000e-09     2.6100e-09     2.6300e-09     2.6400e-09     2.6500e-09     2.6700e-09     2.6800e-09     2.6900e-09     2.7000e-09     2.7100e-09     2.7100e-09     2.7200e-09     2.7300e-09     2.7300e-09     2.7400e-09     2.7400e-09     2.7500e-09     2.7500e-09
   20     21      4.0500e-22     7.0000e-16     4.8200e-13     3.8200e-12     1.0400e-11     1.8900e-11     2.8100e-11     3.7300e-11     4.6200e-11     5.4500e-11     6.2400e-11     6.9700e-11     7.6600e-11     8.3000e-11     8.8900e-11     9.4500e-11     9.9800e-11     1.0500e-10     1.0900e-10     1.1400e-10     1.1800e-10     1.2200e-10     1.2600e-10     1.2900e-10     1.3300e-10     1.3600e-10     1.3900e-10     1.4200e-10     1.4500e-10     1.4800e-10     1.5000e-10     1.5300e-10     1.5500e-10     1.5800e-10     1.6000e-10     1.6200e-10     1.6400e-10     1.6600e-10     1.6800e-10     1.6900e-10     1.7100e-10
   21      1      1.1000e-19     3.0800e-18     9.2200e-18     1.3500e-17     1.7900e-17     2.3400e-17     3.0700e-17     4.0700e-17     5.3900e-17     7.1500e-17     9.4500e-17     1.2400e-16     1.6200e-16     2.1000e-16     2.6900e-16     3.4300e-16     4.3300e-16     5.4100e-16     6.7100e-16     8.2400e-16     1.0100e-15     1.2200e-15     1.4600e-15     1.7400e-15     2.0600e-15     2.4300e-15     2.8400e-15     3.3000e-15     3.8100e-15     4.3800e-15     5.0100e-15     5.6900e-15     6.4400e-15     7.2300e-15     8.0900e-15     8.9900e-15     9.9500e-15     1.0900e-14     1.2000e-14     1.3100e-14     1.4200e-14
   21      2      5.5100e-19     1.5400e-17     4.5800e-17     6.5900e-17     8.5600e-17     1.1000e-16     1.4100e-16     1.8300e-16     2.3700e-16     3.0800e-16     3.9900e-16     5.1500e-16     6.6100e-16     8.4400e-16     1.0700e-15     1.3400e-15     1.6800e-15     2.0700e-15     2.5400e-15     3.1000e-15     3.7500e-15     4.5000e-15     5.3600e-15     6.3500e-15     7.4700e-15     8.7400e-15     1.0200e-14     1.1700e-14     1.3500e-14     1.5400e-14     1.7600e-14     1.9900e-14     2.2400e-14     2.5000e-14     2.7800e-14     3.0800e-14     3.3900e-14     3.7200e-14     4.0600e-14     4.4000e-14     4.7600e-14
   21      3      2.0900e-18     5.8400e-17     1.7200e-16     2.4500e-16     3.1400e-16     3.9500e-16     4.9700e-16     6.2900e-16     7.9600e-16     1.0100e-15     1.2700e-15     1.6000e-15     2.0100e-15     2.5000e-15     3.1000e-15     3.8100e-15     4.6400e-15     5.6300e-15     6.7800e-15     8.1000e-15     9.6300e-15     1.1400e-14     1.3300e-14     1.5500e-14     1.8000e-14     2.0800e-14     2.3800e-14     2.7200e-14     3.0900e-14     3.5000e-14     3.9400e-14     4.4100e-14     4.9200e-14     5.4500e-14     6.0200e-14     6.6100e-14     7.2200e-14     7.8600e-14     8.5100e-14     9.1700e-14     9.8400e-14
   21      4      5.8800e-18     1.6500e-16     4.8300e-16     6.8200e-16     8.6500e-16     1.0700e-15     1.3300e-15     1.6600e-15     2.0700e-15     2.5900e-15     3.2200e-15     4.0000e-15     4.9400e-15     6.0600e-15     7.4000e-15     8.9700e-15     1.0800e-14     1.2900e-14     1.5400e-14     1.8200e-14     2.1300e-14     2.4900e-14     2.8900e-14     3.3300e-14     3.8200e-14     4.3600e-14     4.9500e-14     5.6000e-14     6.3000e-14     7.0600e-14     7.8700e-14     8.7400e-14     9.6500e-14     1.0600e-13     1.1600e-13     1.2700e-13     1.3700e-13     1.4800e-13     1.5900e-13     1.7000e-13     1.8000e-13
   21      5      1.9200e-17     5.3600e-16     1.5600e-15     2.1700e-15     2.7100e-15     3.2900e-15     3.9900e-15     4.8400e-15     5.8900e-15     7.1500e-15     8.6700e-15     1.0500e-14     1.2600e-14     1.5100e-14     1.8100e-14     2.1400e-14     2.5300e-14     2.9700e-14     3.4600e-14     4.0200e-14     4.6400e-14     5.3200e-14     6.0800e-14     6.9100e-14     7.8200e-14     8.8100e-14     9.8800e-14     1.1000e-13     1.2300e-13     1.3600e-13     1.5000e-13     1.6500e-13     1.8100e-13     1.9700e-13     2.1400e-13     2.3200e-13     2.4900e-13     2.6700e-13     2.8500e-13     3.0200e-13     3.2000e-13
   21      6      4.4300e-17     1.2400e-15     3.6100e-15     5.0300e-15     6.2500e-15     7.5900e-15     9.1700e-15     1.1100e-14     1.3400e-14     1.6200e-14     1.9500e-14     2.3400e-14     2.7900e-14     3.3200e-14     3.9300e-14     4.6200e-14     5.4000e-14     6.2700e-14     7.2400e-14     8.3200e-14     9.5100e-14     1.0800e-13     1.2200e-13     1.3800e-13     1.5400e-13     1.7200e-13     1.9100e-13     2.1100e-13     2.3200e-13     2.5500e-13     2.7900e-13     3.0400e-13     3.3000e-13     3.5700e-13     3.8400e-13     4.1200e-13     4.4000e-13     4.6700e-13     4.9500e-13     5.2100e-13     5.4700e-13
   21      7      1.2000e-16     3.3600e-15     9.7400e-15     1.3400e-14     1.6400e-14     1.9500e-14     2.3100e-14     2.7300e-14     3.2300e-14     3.8100e-14     4.4900e-14     5.2700e-14     6.1700e-14     7.2000e-14     8.3500e-14     9.6400e-14     1.1100e-13     1.2700e-13     1.4400e-13     1.6300e-13     1.8400e-13     2.0700e-13     2.3100e-13     2.5700e-13     2.8500e-13     3.1500e-13     3.4600e-13     3.8000e-13     4.1500e-13     4.5200e-13     4.9000e-13     5.3000e-13     5.7200e-13     6.1400e-13     6.5800e-13     7.0200e-13     7.4600e-13     7.8900e-13     8.3200e-13     8.7300e-13     9.1300e-13
   21      8      2.7500e-16     7.6800e-15     2.2300e-14     3.0600e-14     3.7400e-14     4.4500e-14     5.2600e-14     6.2000e-14     7.3000e-14     8.5700e-14     1.0000e-13     1.1700e-13     1.3600e-13     1.5700e-13     1.8000e-13     2.0600e-13     2.3400e-13     2.6400e-13     2.9700e-13     3.3300e-13     3.7100e-13     4.1200e-13     4.5500e-13     5.0000e-13     5.4800e-13     5.9800e-13     6.5100e-13     7.0500e-13     7.6200e-13     8.2100e-13     8.8200e-13     9.4500e-13     1.0100e-12     1.0700e-12     1.1400e-12     1.2000e-12     1.2700e-12     1.3300e-12     1.4000e-12     1.4600e-12     1.5100e-12
   21      9      6.0100e-16     1.6800e-14     4.8500e-14     6.6200e-14     7.9900e-14     9.3800e-14     1.0900e-13     1.2700e-13     1.4700e-13     1.6900e-13     1.9500e-13     2.2400e-13     2.5600e-13     2.9200e-13     3.3100e-13     3.7300e-13     4.1900e-13     4.6900e-13     5.2300e-13     5.8000e-13     6.4000e-13     7.0400e-13     7.7200e-13     8.4300e-13     9.1800e-13     9.9500e-13     1.0800e-12     1.1600e-12     1.2500e-12     1.3400e-12     1.4300e-12     1.5200e-12     1.6200e-12     1.7200e-12     1.8200e-12     1.9200e-12     2.0100e-12     2.1100e-12     2.2000e-12     2.2900e-12     2.3800e-12
   21     10      1.5800e-15     4.4200e-14     1.2700e-13     1.7300e-13     2.0700e-13     2.4100e-13     2.7800e-13     3.1900e-13     3.6400e-13     4.1500e-13     4.7200e-13     5.3300e-13     6.0100e-13     6.7400e-13     7.5200e-13     8.3500e-13     9.2400e-13     1.0200e-12     1.1200e-12     1.2200e-12     1.3200e-12     1.4400e-12     1.5500e-12     1.6700e-12     1.7900e-12     1.9200e-12     2.0400e-12     2.1700e-12     2.3100e-12     2.4400e-12     2.5800e-12     2.7200e-12     2.8600e-12     3.0000e-12     3.1400e-12     3.2800e-12     3.4200e-12     3.5500e-12     3.6800e-12     3.8100e-12     3.9200e-12
   21     11      2.7100e-15     7.5600e-14     2.1700e-13     2.9300e-13     3.4900e-13     4.0300e-13     4.6100e-13     5.2300e-13     5.9300e-13     6.6900e-13     7.5200e-13     8.4300e-13     9.4200e-13     1.0500e-12     1.1600e-12     1.2800e-12     1.4000e-12     1.5400e-12     1.6800e-12     1.8200e-12     1.9700e-12     2.1300e-12     2.2900e-12     2.4500e-12     2.6200e-12     2.8000e-12     2.9800e-12     3.1600e-12     3.3500e-12     3.5300e-12     3.7300e-12     3.9200e-12     4.1100e-12     4.3100e-12     4.5000e-12     4.6900e-12     4.8800e-12     5.0700e-12     5.2500e-12     5.4200e-12     5.5800e-12
   21     12      8.4800e-15     2.3700e-13     6.7700e-13     9.0400e-13     1.0600e-12     1.2100e-12     1.3500e-12     1.5100e-12     1.6700e-12     1.8500e-12     2.0400e-12     2.2400e-12     2.4500e-12     2.6700e-12     2.9000e-12     3.1300e-12     3.3700e-12     3.6200e-12     3.8700e-12     4.1300e-12     4.4000e-12     4.6600e-12     4.9300e-12     5.2100e-12     5.4800e-12     5.7600e-12     6.0300e-12     6.3100e-12     6.5900e-12     6.8700e-12     7.1500e-12     7.4300e-12     7.7100e-12     7.9800e-12     8.2500e-12     8.5200e-12     8.7800e-12     9.0300e-12     9.2700e-12     9.5100e-12     9.7300e-12
   21     13      1.0700e-14     3.0000e-13     8.5500e-13     1.1400e-12     1.3300e-12     1.5100e-12     1.6800e-12     1.8700e-12     2.0600e-12     2.2700e-12     2.4900e-12     2.7200e-12     2.9600e-12     3.2100e-12     3.4700e-12     3.7400e-12     4.0200e-12     4.3100e-12     4.6000e-12     4.9000e-12     5.2000e-12     5.5100e-12     5.8200e-12     6.1300e-12     6.4500e-12     6.7700e-12     7.0900e-12     7.4200e-12     7.7400e-12     8.0700e-12     8.4000e-12     8.7200e-12     9.0500e-12     9.3700e-12     9.6900e-12     1.0000e-11     1.0300e-11     1.0600e-11     1.0900e-11     1.1100e-11     1.1400e-11
   21     14      4.0000e-14     1.1200e-12     3.1700e-12     4.1700e-12     4.8000e-12     5.3300e-12     5.8300e-12     6.3300e-12     6.8400e-12     7.3600e-12     7.9000e-12     8.4400e-12     9.0000e-12     9.5600e-12     1.0100e-11     1.0700e-11     1.1300e-11     1.1800e-11     1.2400e-11     1.3000e-11     1.3600e-11     1.4100e-11     1.4700e-11     1.5200e-11     1.5800e-11     1.6300e-11     1.6900e-11     1.7400e-11     1.8000e-11     1.8500e-11     1.9000e-11     1.9500e-11     2.0000e-11     2.0500e-11     2.1000e-11     2.1500e-11     2.1900e-11     2.2400e-11     2.2800e-11     2.3200e-11     2.3600e-11
   21     15      3.4700e-14     9.6800e-13     2.7400e-12     3.5900e-12     4.1300e-12     4.5700e-12     4.9800e-12     5.3900e-12     5.8000e-12     6.2300e-12     6.6600e-12     7.1000e-12     7.5500e-12     8.0000e-12     8.4600e-12     8.9200e-12     9.3900e-12     9.8600e-12     1.0300e-11     1.0800e-11     1.1300e-11     1.1700e-11     1.2200e-11     1.2700e-11     1.3200e-11     1.3600e-11     1.4100e-11     1.4500e-11     1.5000e-11     1.5400e-11     1.5900e-11     1.6300e-11     1.6800e-11     1.7200e-11     1.7600e-11     1.8000e-11     1.8400e-11     1.8800e-11     1.9200e-11     1.9500e-11     1.9900e-11
   21     16      1.6000e-13     4.4700e-12     1.2600e-11     1.6300e-11     1.8500e-11     2.0100e-11     2.1500e-11     2.2900e-11     2.4200e-11     2.5400e-11     2.6700e-11     2.7900e-11     2.9200e-11     3.0400e-11     3.1600e-11     3.2700e-11     3.3900e-11     3.5000e-11     3.6100e-11     3.7200e-11     3.8300e-11     3.9400e-11     4.0400e-11     4.1400e-11     4.2400e-11     4.3400e-11     4.4300e-11     4.5200e-11     4.6200e-11     4.7000e-11     4.7900e-11     4.8800e-11     4.9600e-11     5.0400e-11     5.1200e-11     5.2000e-11     5.2700e-11     5.3400e-11     5.4100e-11     5.4700e-11     5.5300e-11
   21     17      9.5900e-14     2.6800e-12     7.5100e-12     9.7200e-12     1.1000e-11     1.1900e-11     1.2600e-11     1.3400e-11     1.4000e-11     1.4700e-11     1.5400e-11     1.6000e-11     1.6700e-11     1.7300e-11     1.7900e-11     1.8600e-11     1.9200e-11     1.9800e-11     2.0400e-11     2.1000e-11     2.1600e-11     2.2200e-11     2.2800e-11     2.3400e-11     2.4000e-11     2.4600e-11     2.5100e-11     2.5700e-11     2.6200e-11     2.6800e-11     2.7300e-11     2.7900e-11     2.8400e-11     2.8900e-11     2.9400e-11     2.9900e-11     3.0400e-11     3.0800e-11     3.1300e-11     3.1700e-11     3.2000e-11
   21     18      5.3800e-13     1.5000e-11     4.1900e-11     5.3700e-11     5.9800e-11     6.3900e-11     6.7100e-11     7.0000e-11     7.2500e-11     7.5000e-11     7.7300e-11     7.9500e-11     8.1600e-11     8.3600e-11     8.5600e-11     8.7500e-11     8.9400e-11     9.1100e-11     9.2900e-11     9.4600e-11     9.6200e-11     9.7800e-11     9.9300e-11     1.0100e-10     1.0200e-10     1.0400e-10     1.0500e-10     1.0600e-10     1.0800e-10     1.0900e-10     1.1000e-10     1.1100e-10     1.1300e-10     1.1400e-10     1.1500e-10     1.1600e-10     1.1700e-10     1.1800e-10     1.1900e-10     1.1900e-10     1.2000e-10
   21     19      3.8300e-13     1.0700e-11     2.9800e-11     3.8000e-11     4.2000e-11     4.4600e-11     4.6500e-11     4.8100e-11     4.9600e-11     5.0900e-11     5.2100e-11     5.3300e-11     5.4500e-11     5.5600e-11     5.6700e-11     5.7700e-11     5.8800e-11     5.9800e-11     6.0800e-11     6.1800e-11     6.2800e-11     6.3800e-11     6.4700e-11     6.5600e-11     6.6600e-11     6.7500e-11     6.8400e-11     6.9300e-11     7.0200e-11     7.1000e-11     7.1900e-11     7.2700e-11     7.3600e-11     7.4400e-11     7.5200e-11     7.5900e-11     7.6700e-11     7.7400e-11     7.8000e-11     7.8600e-11     7.9200e-11
   21     20      1.4800e-12     4.1400e-11     1.1400e-10     1.4400e-10     1.5700e-10     1.6400e-10     1.6800e-10     1.7200e-10     1.7400e-10     1.7700e-10     1.7900e-10     1.8100e-10     1.8300e-10     1.8400e-10     1.8600e-10     1.8800e-10     1.8900e-10     1.9100e-10     1.9200e-10     1.9300e-10     1.9500e-10     1.9600e-10     1.9700e-10     1.9900e-10     2.0000e-10     2.0100e-10     2.0200e-10     2.0300e-10     2.0400e-10     2.0500e-10     2.0600e-10     2.0700e-10     2.0800e-10     2.0900e-10     2.1000e-10     2.1100e-10     2.1200e-10     2.1300e-10     2.1300e-10     2.1400e-10     2.1400e-10
   21     21      8.8900e-12     2.4900e-10     7.6000e-10     1.0900e-09     1.3300e-09     1.5200e-09     1.6800e-09     1.8100e-09     1.9200e-09     2.0100e-09     2.0900e-09     2.1600e-09     2.2200e-09     2.2700e-09     2.3200e-09     2.3600e-09     2.4000e-09     2.4300e-09     2.4600e-09     2.4900e-09     2.5100e-09     2.5300e-09     2.5500e-09     2.5700e-09     2.5900e-09     2.6000e-09     2.6200e-09     2.6300e-09     2.6400e-09     2.6500e-09     2.6600e-09     2.6700e-09     2.6800e-09     2.6900e-09     2.6900e-09     2.7000e-09     2.7100e-09     2.7100e-09     2.7100e-09     2.7100e-09     2.7200e-09

