8
20.  40.  70. 100.  150.  200.  250.  300.
0 1 9.750000e-11 9.630000e-11 8.860000e-11 8.350000e-11 7.900000e-11 7.710000e-11 7.630000e-11 7.610000e-11
0 2 9.760000e-11 1.280000e-10 1.430000e-10 1.510000e-10 1.620000e-10 1.720000e-10 1.820000e-10 1.900000e-10
0 3 1.570000e-11 2.550000e-11 3.150000e-11 3.400000e-11 3.590000e-11 3.710000e-11 3.840000e-11 3.980000e-11
0 4 8.320000e-12 1.830000e-11 2.750000e-11 3.340000e-11 4.100000e-11 4.790000e-11 5.470000e-11 6.140000e-11
0 5 1.360000e-12 3.230000e-12 6.010000e-12 8.420000e-12 1.130000e-11 1.320000e-11 1.450000e-11 1.550000e-11
0 6 5.940000e-13 2.970000e-12 7.620000e-12 1.210000e-11 1.830000e-11 2.340000e-11 2.790000e-11 3.200000e-11
0 7 4.640000e-13 2.000000e-12 3.960000e-12 5.560000e-12 7.650000e-12 9.200000e-12 1.040000e-11 1.130000e-11
0 8 4.400000e-14 4.550000e-13 1.720000e-12 3.440000e-12 6.510000e-12 9.320000e-12 1.180000e-11 1.400000e-11
0 9 6.310000e-14 7.890000e-13 2.490000e-12 4.240000e-12 6.880000e-12 9.080000e-12 1.090000e-11 1.230000e-11
0 10 4.890000e-15 1.370000e-13 6.780000e-13 1.480000e-12 3.080000e-12 4.690000e-12 6.180000e-12 7.510000e-12
0 11 1.450000e-15 7.500000e-14 4.770000e-13 1.160000e-12 2.670000e-12 4.330000e-12 5.930000e-12 7.410000e-12
0 12 2.350000e-16 2.680000e-14 2.450000e-13 6.810000e-13 1.710000e-12 2.880000e-12 4.020000e-12 5.080000e-12
0 13 3.350000e-17 8.050000e-15 1.070000e-13 3.640000e-13 1.120000e-12 2.140000e-12 3.250000e-12 4.370000e-12
0 14 3.750000e-18 2.180000e-15 4.650000e-14 1.930000e-13 6.860000e-13 1.400000e-12 2.190000e-12 2.990000e-12
0 15 6.240000e-19 8.870000e-16 2.530000e-14 1.170000e-13 4.650000e-13 1.030000e-12 1.730000e-12 2.480000e-12
0 16 4.810000e-20 1.980000e-16 9.670000e-15 5.750000e-14 2.820000e-13 6.880000e-13 1.220000e-12 1.810000e-12
0 17 4.540000e-21 5.020000e-17 3.930000e-15 2.860000e-14 1.660000e-13 4.480000e-13 8.530000e-13 1.350000e-12
0 18 5.100000e-22 1.560000e-17 1.810000e-15 1.550000e-14 1.050000e-13 3.080000e-13 6.220000e-13 1.020000e-12
0 19 5.040000e-23 4.110000e-18 7.390000e-16 7.670000e-15 6.080000e-14 1.960000e-13 4.200000e-13 7.220000e-13
0 20 4.680000e-24 1.040000e-18 2.970000e-16 3.740000e-15 3.490000e-14 1.240000e-13 2.850000e-13 5.130000e-13
1 0 3.660000e-11 3.410000e-11 3.050000e-11 2.850000e-11 2.680000e-11 2.600000e-11 2.570000e-11 2.560000e-11
1 2 6.960000e-11 7.240000e-11 7.060000e-11 6.890000e-11 6.720000e-11 6.670000e-11 6.690000e-11 6.750000e-11
1 3 5.160000e-11 7.800000e-11 9.300000e-11 1.010000e-10 1.120000e-10 1.220000e-10 1.310000e-10 1.400000e-10
1 4 7.020000e-12 1.350000e-11 1.880000e-11 2.180000e-11 2.470000e-11 2.650000e-11 2.800000e-11 2.930000e-11
1 5 3.180000e-12 9.540000e-12 1.730000e-11 2.300000e-11 3.050000e-11 3.690000e-11 4.280000e-11 4.860000e-11
1 6 7.090000e-13 2.430000e-12 4.900000e-12 7.000000e-12 9.610000e-12 1.140000e-11 1.270000e-11 1.370000e-11
1 7 2.450000e-13 1.610000e-12 4.680000e-12 7.920000e-12 1.270000e-11 1.680000e-11 2.040000e-11 2.370000e-11
1 8 1.860000e-13 1.280000e-12 3.150000e-12 4.880000e-12 7.300000e-12 9.210000e-12 1.070000e-11 1.190000e-11
1 9 1.790000e-14 2.740000e-13 1.180000e-12 2.460000e-12 4.840000e-12 7.100000e-12 9.130000e-12 1.090000e-11
1 10 1.380000e-14 3.210000e-13 1.330000e-12 2.570000e-12 4.710000e-12 6.690000e-12 8.430000e-12 9.920000e-12
1 11 1.300000e-15 6.680000e-14 4.330000e-13 1.050000e-12 2.380000e-12 3.800000e-12 5.130000e-12 6.340000e-12
1 12 3.050000e-16 3.120000e-14 2.680000e-13 7.390000e-13 1.890000e-12 3.250000e-12 4.630000e-12 5.950000e-12
1 13 4.200000e-17 9.450000e-15 1.210000e-13 3.970000e-13 1.150000e-12 2.100000e-12 3.090000e-12 4.030000e-12
1 14 5.960000e-18 3.010000e-15 5.700000e-14 2.220000e-13 7.680000e-13 1.560000e-12 2.480000e-12 3.430000e-12
1 15 6.690000e-19 9.090000e-16 2.600000e-14 1.210000e-13 4.790000e-13 1.040000e-12 1.710000e-12 2.410000e-12
1 16 7.080000e-20 2.630000e-16 1.150000e-14 6.430000e-14 3.000000e-13 7.210000e-13 1.270000e-12 1.900000e-12
1 17 5.780000e-21 6.090000e-17 4.590000e-15 3.250000e-14 1.840000e-13 4.850000e-13 9.080000e-13 1.410000e-12
1 18 6.070000e-22 1.740000e-17 1.970000e-15 1.660000e-14 1.090000e-13 3.150000e-13 6.300000e-13 1.030000e-12
1 19 6.820000e-23 5.140000e-18 8.650000e-16 8.610000e-15 6.590000e-14 2.090000e-13 4.440000e-13 7.580000e-13
1 20 5.740000e-24 1.210000e-18 3.360000e-16 4.160000e-15 3.800000e-14 1.320000e-13 2.990000e-13 5.310000e-13
2 0 2.780000e-11 3.060000e-11 3.170000e-11 3.240000e-11 3.390000e-11 3.570000e-11 3.740000e-11 3.890000e-11
2 1 5.280000e-11 4.890000e-11 4.530000e-11 4.330000e-11 4.160000e-11 4.100000e-11 4.090000e-11 4.110000e-11
2 3 4.700000e-11 5.640000e-11 5.800000e-11 5.820000e-11 5.830000e-11 5.870000e-11 5.930000e-11 6.020000e-11
2 4 3.610000e-11 5.750000e-11 7.190000e-11 8.090000e-11 9.270000e-11 1.030000e-10 1.120000e-10 1.200000e-10
2 5 4.260000e-12 9.740000e-12 1.480000e-11 1.780000e-11 2.090000e-11 2.280000e-11 2.440000e-11 2.580000e-11
2 6 1.910000e-12 6.650000e-12 1.280000e-11 1.770000e-11 2.420000e-11 2.980000e-11 3.510000e-11 4.000000e-11
2 7 4.540000e-13 1.970000e-12 4.360000e-12 6.480000e-12 9.240000e-12 1.120000e-11 1.270000e-11 1.390000e-11
2 8 1.360000e-13 1.160000e-12 3.590000e-12 6.220000e-12 1.020000e-11 1.370000e-11 1.680000e-11 1.960000e-11
2 9 6.140000e-14 6.600000e-13 2.010000e-12 3.410000e-12 5.610000e-12 7.480000e-12 9.050000e-12 1.040000e-11
2 10 7.070000e-15 1.710000e-13 8.650000e-13 1.920000e-12 3.950000e-12 5.950000e-12 7.760000e-12 9.390000e-12
2 11 3.700000e-15 1.540000e-13 8.240000e-13 1.760000e-12 3.530000e-12 5.270000e-12 6.850000e-12 8.260000e-12
2 12 3.170000e-16 3.030000e-14 2.600000e-13 7.140000e-13 1.790000e-12 3.000000e-12 4.200000e-12 5.310000e-12
2 13 7.400000e-17 1.380000e-14 1.570000e-13 4.880000e-13 1.380000e-12 2.500000e-12 3.690000e-12 4.860000e-12
2 14 8.810000e-18 3.990000e-15 7.070000e-14 2.630000e-13 8.460000e-13 1.630000e-12 2.490000e-12 3.340000e-12
2 15 1.160000e-18 1.340000e-15 3.390000e-14 1.470000e-13 5.540000e-13 1.180000e-12 1.940000e-12 2.750000e-12
2 16 1.020000e-19 3.350000e-16 1.390000e-14 7.530000e-14 3.360000e-13 7.790000e-13 1.340000e-12 1.950000e-12
2 17 1.030000e-20 9.100000e-17 6.010000e-15 3.940000e-14 2.080000e-13 5.330000e-13 9.830000e-13 1.510000e-12
2 18 9.550000e-22 2.410000e-17 2.520000e-15 2.020000e-14 1.260000e-13 3.540000e-13 6.910000e-13 1.110000e-12
2 19 1.030000e-22 6.860000e-18 1.070000e-15 1.020000e-14 7.430000e-14 2.280000e-13 4.750000e-13 7.980000e-13
2 20 9.190000e-24 1.700000e-18 4.330000e-16 5.070000e-15 4.390000e-14 1.480000e-13 3.280000e-13 5.750000e-13
3 0 4.540000e-12 5.190000e-12 5.500000e-12 5.600000e-12 5.640000e-12 5.690000e-12 5.800000e-12 5.960000e-12
3 1 3.980000e-11 4.490000e-11 4.720000e-11 4.880000e-11 5.200000e-11 5.550000e-11 5.900000e-11 6.220000e-11
3 2 4.780000e-11 4.800000e-11 4.590000e-11 4.460000e-11 4.360000e-11 4.340000e-11 4.360000e-11 4.400000e-11
3 4 4.680000e-11 5.250000e-11 5.370000e-11 5.400000e-11 5.460000e-11 5.530000e-11 5.620000e-11 5.720000e-11
3 5 2.210000e-11 4.190000e-11 5.720000e-11 6.710000e-11 7.970000e-11 9.020000e-11 9.920000e-11 1.070000e-10
3 6 3.190000e-12 8.120000e-12 1.300000e-11 1.610000e-11 1.940000e-11 2.160000e-11 2.340000e-11 2.500000e-11
3 7 1.240000e-12 5.090000e-12 1.050000e-11 1.480000e-11 2.070000e-11 2.590000e-11 3.070000e-11 3.510000e-11
3 8 2.150000e-13 1.290000e-12 3.260000e-12 5.130000e-12 7.740000e-12 9.750000e-12 1.130000e-11 1.260000e-11
3 9 7.550000e-14 8.440000e-13 2.880000e-12 5.150000e-12 8.720000e-12 1.190000e-11 1.470000e-11 1.720000e-11
3 10 2.220000e-14 3.900000e-13 1.430000e-12 2.620000e-12 4.560000e-12 6.290000e-12 7.790000e-12 9.080000e-12
3 11 2.690000e-15 1.060000e-13 6.390000e-13 1.510000e-12 3.270000e-12 5.050000e-12 6.700000e-12 8.210000e-12
3 12 1.100000e-15 7.950000e-14 5.400000e-13 1.270000e-12 2.750000e-12 4.270000e-12 5.700000e-12 6.990000e-12
3 13 8.880000e-17 1.460000e-14 1.630000e-13 5.010000e-13 1.380000e-12 2.430000e-12 3.510000e-12 4.540000e-12
3 14 1.920000e-17 6.660000e-15 1.010000e-13 3.480000e-13 1.060000e-12 2.010000e-12 3.040000e-12 4.070000e-12
3 15 2.170000e-18 2.080000e-15 4.720000e-14 1.900000e-13 6.540000e-13 1.310000e-12 2.050000e-12 2.810000e-12
3 16 2.030000e-19 5.380000e-16 1.940000e-14 9.700000e-14 4.080000e-13 9.210000e-13 1.560000e-12 2.270000e-12
3 17 1.770000e-20 1.310000e-16 7.930000e-15 4.950000e-14 2.460000e-13 6.000000e-13 1.070000e-12 1.600000e-12
3 18 1.960000e-21 3.970000e-17 3.590000e-15 2.640000e-14 1.520000e-13 4.090000e-13 7.790000e-13 1.230000e-12
3 19 1.880000e-22 1.040000e-17 1.480000e-15 1.330000e-14 9.100000e-14 2.670000e-13 5.380000e-13 8.830000e-13
3 20 1.650000e-23 2.530000e-18 5.840000e-16 6.470000e-15 5.250000e-14 1.700000e-13 3.660000e-13 6.300000e-13
4 0 3.000000e-12 3.660000e-12 4.270000e-12 4.700000e-12 5.320000e-12 5.980000e-12 6.670000e-12 7.380000e-12
4 1 6.740000e-12 7.620000e-12 8.470000e-12 8.980000e-12 9.480000e-12 9.810000e-12 1.010000e-11 1.050000e-11
4 2 4.570000e-11 4.820000e-11 5.050000e-11 5.300000e-11 5.750000e-11 6.210000e-11 6.640000e-11 7.040000e-11
4 3 5.820000e-11 5.170000e-11 4.770000e-11 4.620000e-11 4.520000e-11 4.510000e-11 4.540000e-11 4.590000e-11
4 5 2.520000e-11 3.730000e-11 4.400000e-11 4.720000e-11 5.010000e-11 5.210000e-11 5.380000e-11 5.530000e-11
4 6 1.820000e-11 3.600000e-11 5.040000e-11 5.990000e-11 7.230000e-11 8.260000e-11 9.150000e-11 9.920000e-11
4 7 2.010000e-12 6.160000e-12 1.070000e-11 1.380000e-11 1.720000e-11 1.960000e-11 2.150000e-11 2.330000e-11
4 8 8.010000e-13 4.070000e-12 8.980000e-12 1.300000e-11 1.860000e-11 2.350000e-11 2.800000e-11 3.220000e-11
4 9 9.430000e-14 8.320000e-13 2.500000e-12 4.190000e-12 6.620000e-12 8.570000e-12 1.020000e-11 1.150000e-11
4 10 3.750000e-14 6.070000e-13 2.330000e-12 4.350000e-12 7.580000e-12 1.050000e-11 1.310000e-11 1.550000e-11
4 11 8.360000e-15 2.320000e-13 1.040000e-12 2.050000e-12 3.780000e-12 5.370000e-12 6.780000e-12 8.000000e-12
4 12 1.130000e-15 7.010000e-14 4.970000e-13 1.230000e-12 2.780000e-12 4.390000e-12 5.920000e-12 7.330000e-12
4 13 3.540000e-16 4.190000e-14 3.580000e-13 9.320000e-13 2.180000e-12 3.510000e-12 4.810000e-12 6.000000e-12
4 14 2.660000e-17 7.850000e-15 1.140000e-13 3.830000e-13 1.120000e-12 2.040000e-12 3.010000e-12 3.960000e-12
4 15 5.210000e-18 3.730000e-15 7.190000e-14 2.690000e-13 8.650000e-13 1.680000e-12 2.580000e-12 3.510000e-12
4 16 4.360000e-19 9.100000e-16 2.870000e-14 1.320000e-13 5.010000e-13 1.050000e-12 1.700000e-12 2.380000e-12
4 17 4.070000e-20 2.260000e-16 1.170000e-14 6.710000e-14 3.120000e-13 7.380000e-13 1.290000e-12 1.910000e-12
4 18 3.960000e-21 6.330000e-17 5.120000e-15 3.540000e-14 1.890000e-13 4.800000e-13 8.740000e-13 1.330000e-12
4 19 4.310000e-22 1.830000e-17 2.230000e-15 1.830000e-14 1.150000e-13 3.220000e-13 6.300000e-13 1.010000e-12
4 20 3.450000e-23 4.180000e-18 8.580000e-16 8.900000e-15 6.740000e-14 2.080000e-13 4.300000e-13 7.180000e-13
5 0 7.230000e-13 7.080000e-13 9.040000e-13 1.090000e-12 1.300000e-12 1.430000e-12 1.520000e-12 1.580000e-12
5 1 4.490000e-12 5.930000e-12 7.540000e-12 8.720000e-12 1.030000e-11 1.190000e-11 1.330000e-11 1.480000e-11
5 2 7.940000e-12 8.970000e-12 1.010000e-11 1.080000e-11 1.150000e-11 1.200000e-11 1.240000e-11 1.290000e-11
5 3 4.050000e-11 4.520000e-11 4.930000e-11 5.270000e-11 5.840000e-11 6.380000e-11 6.870000e-11 7.310000e-11
5 4 3.720000e-11 4.090000e-11 4.260000e-11 4.340000e-11 4.440000e-11 4.530000e-11 4.620000e-11 4.710000e-11
5 6 2.200000e-11 3.370000e-11 4.080000e-11 4.430000e-11 4.770000e-11 5.000000e-11 5.200000e-11 5.370000e-11
5 7 1.570000e-11 3.220000e-11 4.570000e-11 5.500000e-11 6.720000e-11 7.750000e-11 8.630000e-11 9.400000e-11
5 8 1.500000e-12 5.380000e-12 9.720000e-12 1.260000e-11 1.590000e-11 1.820000e-11 2.020000e-11 2.190000e-11
5 9 5.560000e-13 3.360000e-12 7.900000e-12 1.170000e-11 1.700000e-11 2.160000e-11 2.590000e-11 3.000000e-11
5 10 5.030000e-14 6.110000e-13 2.060000e-12 3.610000e-12 5.880000e-12 7.730000e-12 9.260000e-12 1.050000e-11
5 11 1.910000e-14 4.480000e-13 1.960000e-12 3.790000e-12 6.780000e-12 9.500000e-12 1.200000e-11 1.430000e-11
5 12 3.240000e-15 1.390000e-13 7.520000e-13 1.610000e-12 3.150000e-12 4.610000e-12 5.930000e-12 7.100000e-12
5 13 4.940000e-16 4.470000e-14 3.750000e-13 1.000000e-12 2.370000e-12 3.840000e-12 5.260000e-12 6.590000e-12
5 14 1.250000e-16 2.380000e-14 2.570000e-13 7.310000e-13 1.810000e-12 3.010000e-12 4.200000e-12 5.310000e-12
5 15 9.240000e-18 5.070000e-15 8.850000e-14 3.150000e-13 9.540000e-13 1.770000e-12 2.650000e-12 3.510000e-12
5 16 1.190000e-18 1.770000e-15 4.650000e-14 1.970000e-13 6.930000e-13 1.400000e-12 2.210000e-12 3.040000e-12
5 17 1.010000e-19 4.150000e-16 1.830000e-14 9.580000e-14 3.980000e-13 8.710000e-13 1.440000e-12 2.050000e-12
5 18 1.020000e-20 1.160000e-16 7.840000e-15 4.990000e-14 2.490000e-13 6.090000e-13 1.080000e-12 1.630000e-12
5 19 1.020000e-21 3.220000e-17 3.400000e-15 2.590000e-14 1.490000e-13 3.920000e-13 7.300000e-13 1.130000e-12
5 20 8.810000e-23 7.800000e-18 1.350000e-15 1.270000e-14 8.840000e-14 2.590000e-13 5.190000e-13 8.490000e-13
6 0 5.400000e-13 7.840000e-13 1.190000e-12 1.520000e-12 1.960000e-12 2.300000e-12 2.610000e-12 2.910000e-12
6 1 1.720000e-12 1.820000e-12 2.220000e-12 2.590000e-12 3.030000e-12 3.320000e-12 3.530000e-12 3.690000e-12
6 2 6.100000e-12 7.380000e-12 9.030000e-12 1.040000e-11 1.230000e-11 1.420000e-11 1.600000e-11 1.770000e-11
6 3 1.000000e-11 1.060000e-11 1.160000e-11 1.230000e-11 1.320000e-11 1.390000e-11 1.450000e-11 1.510000e-11
6 4 4.600000e-11 4.760000e-11 5.050000e-11 5.370000e-11 5.950000e-11 6.510000e-11 7.030000e-11 7.490000e-11
6 5 3.780000e-11 4.060000e-11 4.220000e-11 4.310000e-11 4.430000e-11 4.540000e-11 4.660000e-11 4.760000e-11
6 7 1.710000e-11 2.930000e-11 3.730000e-11 4.140000e-11 4.530000e-11 4.810000e-11 5.030000e-11 5.220000e-11
6 8 1.270000e-11 2.860000e-11 4.200000e-11 5.120000e-11 6.340000e-11 7.360000e-11 8.240000e-11 9.000000e-11
6 9 9.650000e-13 4.170000e-12 8.260000e-12 1.110000e-11 1.440000e-11 1.680000e-11 1.880000e-11 2.060000e-11
6 10 3.450000e-13 2.710000e-12 6.950000e-12 1.060000e-11 1.570000e-11 2.020000e-11 2.440000e-11 2.830000e-11
6 11 2.920000e-14 4.840000e-13 1.810000e-12 3.270000e-12 5.410000e-12 7.160000e-12 8.600000e-12 9.840000e-12
6 12 1.030000e-14 3.360000e-13 1.640000e-12 3.310000e-12 6.080000e-12 8.640000e-12 1.100000e-11 1.320000e-11
6 13 1.360000e-15 8.610000e-14 5.600000e-13 1.290000e-12 2.680000e-12 4.040000e-12 5.280000e-12 6.400000e-12
6 14 2.160000e-16 3.160000e-14 3.190000e-13 8.910000e-13 2.160000e-12 3.520000e-12 4.840000e-12 6.090000e-12
6 15 3.770000e-17 1.390000e-14 1.910000e-13 5.910000e-13 1.550000e-12 2.640000e-12 3.720000e-12 4.750000e-12
6 16 2.450000e-18 2.620000e-15 6.060000e-14 2.410000e-13 7.930000e-13 1.520000e-12 2.320000e-12 3.120000e-12
6 17 3.150000e-19 8.550000e-16 3.080000e-14 1.470000e-13 5.670000e-13 1.190000e-12 1.910000e-12 2.670000e-12
6 18 2.810000e-20 2.260000e-16 1.290000e-14 7.410000e-14 3.280000e-13 7.410000e-13 1.250000e-12 1.790000e-12
6 19 2.850000e-21 6.140000e-17 5.370000e-15 3.770000e-14 2.020000e-13 5.110000e-13 9.290000e-13 1.410000e-12
6 20 2.420000e-22 1.490000e-17 2.180000e-15 1.890000e-14 1.190000e-13 3.250000e-13 6.190000e-13 9.730000e-13
7 0 8.330000e-13 6.930000e-13 6.770000e-13 7.160000e-13 7.920000e-13 8.520000e-13 8.990000e-13 9.360000e-13
7 1 1.170000e-12 1.580000e-12 2.320000e-12 2.990000e-12 3.890000e-12 4.620000e-12 5.270000e-12 5.860000e-12
7 2 2.860000e-12 2.860000e-12 3.370000e-12 3.890000e-12 4.560000e-12 5.030000e-12 5.370000e-12 5.640000e-12
7 3 7.680000e-12 8.660000e-12 1.020000e-11 1.160000e-11 1.370000e-11 1.570000e-11 1.760000e-11 1.950000e-11
7 4 1.000000e-11 1.060000e-11 1.180000e-11 1.260000e-11 1.370000e-11 1.450000e-11 1.530000e-11 1.610000e-11
7 5 5.330000e-11 5.070000e-11 5.190000e-11 5.470000e-11 6.040000e-11 6.620000e-11 7.160000e-11 7.630000e-11
7 6 3.380000e-11 3.830000e-11 4.090000e-11 4.230000e-11 4.390000e-11 4.520000e-11 4.650000e-11 4.780000e-11
7 8 1.640000e-11 2.910000e-11 3.700000e-11 4.080000e-11 4.460000e-11 4.720000e-11 4.940000e-11 5.130000e-11
7 9 1.090000e-11 2.640000e-11 3.970000e-11 4.870000e-11 6.070000e-11 7.080000e-11 7.950000e-11 8.700000e-11
7 10 6.700000e-13 3.500000e-12 7.400000e-12 1.020000e-11 1.350000e-11 1.580000e-11 1.780000e-11 1.960000e-11
7 11 2.280000e-13 2.290000e-12 6.350000e-12 9.890000e-12 1.480000e-11 1.920000e-11 2.320000e-11 2.700000e-11
7 12 1.780000e-14 3.850000e-13 1.560000e-12 2.900000e-12 4.920000e-12 6.580000e-12 7.980000e-12 9.180000e-12
7 13 5.610000e-15 2.370000e-13 1.320000e-12 2.820000e-12 5.410000e-12 7.840000e-12 1.010000e-11 1.220000e-11
7 14 6.860000e-16 5.960000e-14 4.560000e-13 1.110000e-12 2.400000e-12 3.670000e-12 4.840000e-12 5.900000e-12
7 15 1.010000e-16 2.410000e-14 2.800000e-13 8.080000e-13 1.990000e-12 3.270000e-12 4.500000e-12 5.680000e-12
7 16 1.090000e-17 7.380000e-15 1.310000e-13 4.520000e-13 1.290000e-12 2.270000e-12 3.280000e-12 4.250000e-12
7 17 7.590000e-19 1.400000e-15 4.300000e-14 1.910000e-13 6.750000e-13 1.340000e-12 2.070000e-12 2.810000e-12
7 18 9.590000e-20 4.880000e-16 2.240000e-14 1.170000e-13 4.800000e-13 1.040000e-12 1.690000e-12 2.390000e-12
7 19 8.960000e-21 1.280000e-16 9.210000e-15 5.800000e-14 2.740000e-13 6.380000e-13 1.090000e-12 1.590000e-12
7 20 7.410000e-22 2.960000e-17 3.530000e-15 2.810000e-14 1.650000e-13 4.330000e-13 8.040000e-13 1.240000e-12
8 0 1.790000e-13 2.220000e-13 3.390000e-13 4.720000e-13 6.740000e-13 8.370000e-13 9.730000e-13 1.090000e-12
8 1 2.020000e-12 1.770000e-12 1.800000e-12 1.960000e-12 2.230000e-12 2.450000e-12 2.620000e-12 2.760000e-12
8 2 1.950000e-12 2.380000e-12 3.200000e-12 3.980000e-12 5.050000e-12 5.940000e-12 6.730000e-12 7.450000e-12
8 3 3.020000e-12 3.110000e-12 3.680000e-12 4.280000e-12 5.100000e-12 5.710000e-12 6.190000e-12 6.590000e-12
8 4 9.030000e-12 9.930000e-12 1.140000e-11 1.270000e-11 1.480000e-11 1.690000e-11 1.890000e-11 2.090000e-11
8 5 1.150000e-11 1.200000e-11 1.270000e-11 1.340000e-11 1.430000e-11 1.510000e-11 1.590000e-11 1.670000e-11
8 6 5.650000e-11 5.290000e-11 5.320000e-11 5.570000e-11 6.130000e-11 6.710000e-11 7.260000e-11 7.740000e-11
8 7 3.710000e-11 4.110000e-11 4.270000e-11 4.350000e-11 4.460000e-11 4.580000e-11 4.700000e-11 4.820000e-11
8 9 1.280000e-11 2.460000e-11 3.340000e-11 3.800000e-11 4.250000e-11 4.550000e-11 4.790000e-11 4.990000e-11
8 10 8.470000e-12 2.400000e-11 3.760000e-11 4.660000e-11 5.850000e-11 6.850000e-11 7.710000e-11 8.460000e-11
8 11 4.790000e-13 3.010000e-12 6.780000e-12 9.550000e-12 1.270000e-11 1.510000e-11 1.700000e-11 1.880000e-11
8 12 1.560000e-13 1.930000e-12 5.720000e-12 9.130000e-12 1.390000e-11 1.820000e-11 2.210000e-11 2.580000e-11
8 13 1.090000e-14 2.880000e-13 1.300000e-12 2.540000e-12 4.460000e-12 6.070000e-12 7.430000e-12 8.600000e-12
8 14 3.190000e-15 1.880000e-13 1.190000e-12 2.630000e-12 5.110000e-12 7.430000e-12 9.570000e-12 1.160000e-11
8 15 2.460000e-16 3.820000e-14 3.630000e-13 9.520000e-13 2.150000e-12 3.350000e-12 4.460000e-12 5.470000e-12
8 16 3.310000e-17 1.430000e-14 2.110000e-13 6.690000e-13 1.760000e-12 2.960000e-12 4.140000e-12 5.250000e-12
8 17 3.480000e-18 3.850000e-15 9.020000e-14 3.480000e-13 1.080000e-12 1.980000e-12 2.920000e-12 3.830000e-12
8 18 2.720000e-19 8.890000e-16 3.370000e-14 1.600000e-13 5.950000e-13 1.200000e-12 1.880000e-12 2.570000e-12
8 19 3.300000e-20 2.880000e-16 1.650000e-14 9.410000e-14 4.100000e-13 9.110000e-13 1.510000e-12 2.150000e-12
8 20 2.660000e-21 6.650000e-17 6.330000e-15 4.460000e-14 2.290000e-13 5.530000e-13 9.640000e-13 1.420000e-12
9 0 6.600000e-13 5.860000e-13 5.950000e-13 6.430000e-13 7.340000e-13 8.110000e-13 8.730000e-13 9.210000e-13
9 1 4.990000e-13 5.750000e-13 8.160000e-13 1.090000e-12 1.520000e-12 1.880000e-12 2.180000e-12 2.440000e-12
9 2 2.260000e-12 2.050000e-12 2.170000e-12 2.410000e-12 2.850000e-12 3.230000e-12 3.530000e-12 3.790000e-12
9 3 2.730000e-12 3.080000e-12 3.930000e-12 4.750000e-12 5.920000e-12 6.920000e-12 7.810000e-12 8.620000e-12
9 4 2.740000e-12 3.090000e-12 3.830000e-12 4.520000e-12 5.430000e-12 6.130000e-12 6.690000e-12 7.150000e-12
9 5 1.100000e-11 1.140000e-11 1.250000e-11 1.370000e-11 1.570000e-11 1.780000e-11 1.990000e-11 2.200000e-11
9 6 1.110000e-11 1.170000e-11 1.270000e-11 1.340000e-11 1.440000e-11 1.530000e-11 1.610000e-11 1.700000e-11
9 7 6.360000e-11 5.670000e-11 5.550000e-11 5.730000e-11 6.250000e-11 6.820000e-11 7.370000e-11 7.850000e-11
9 8 3.290000e-11 3.740000e-11 4.040000e-11 4.200000e-11 4.380000e-11 4.530000e-11 4.670000e-11 4.800000e-11
9 10 8.990000e-12 2.040000e-11 2.990000e-11 3.520000e-11 4.040000e-11 4.390000e-11 4.650000e-11 4.870000e-11
9 11 6.640000e-12 2.190000e-11 3.580000e-11 4.490000e-11 5.680000e-11 6.670000e-11 7.530000e-11 8.270000e-11
9 12 3.480000e-13 2.600000e-12 6.200000e-12 8.910000e-12 1.210000e-11 1.440000e-11 1.630000e-11 1.800000e-11
9 13 1.050000e-13 1.530000e-12 4.940000e-12 8.200000e-12 1.290000e-11 1.710000e-11 2.100000e-11 2.470000e-11
9 14 7.340000e-15 2.460000e-13 1.230000e-12 2.440000e-12 4.310000e-12 5.870000e-12 7.170000e-12 8.300000e-12
9 15 1.690000e-15 1.480000e-13 1.060000e-12 2.410000e-12 4.790000e-12 7.020000e-12 9.070000e-12 1.100000e-11
9 16 9.730000e-17 2.410000e-14 2.770000e-13 7.860000e-13 1.880000e-12 3.020000e-12 4.080000e-12 5.050000e-12
9 17 1.510000e-17 9.280000e-15 1.670000e-13 5.710000e-13 1.580000e-12 2.720000e-12 3.850000e-12 4.910000e-12
9 18 1.320000e-18 2.420000e-15 6.910000e-14 2.880000e-13 9.430000e-13 1.780000e-12 2.650000e-12 3.510000e-12
9 19 1.140000e-19 5.910000e-16 2.670000e-14 1.360000e-13 5.290000e-13 1.090000e-12 1.730000e-12 2.370000e-12
9 20 1.070000e-20 1.560000e-16 1.160000e-14 7.400000e-14 3.490000e-13 8.020000e-13 1.360000e-12 1.950000e-12
10 0 1.500000e-13 1.650000e-13 2.050000e-13 2.570000e-13 3.470000e-13 4.270000e-13 4.930000e-13 5.500000e-13
10 1 1.130000e-12 1.100000e-12 1.170000e-12 1.310000e-12 1.570000e-12 1.800000e-12 2.000000e-12 2.160000e-12
10 2 7.630000e-13 8.680000e-13 1.180000e-12 1.550000e-12 2.130000e-12 2.610000e-12 3.020000e-12 3.360000e-12
10 3 2.360000e-12 2.320000e-12 2.480000e-12 2.760000e-12 3.280000e-12 3.730000e-12 4.120000e-12 4.450000e-12
10 4 3.190000e-12 3.670000e-12 4.540000e-12 5.370000e-12 6.580000e-12 7.630000e-12 8.580000e-12 9.460000e-12
10 5 2.910000e-12 3.360000e-12 4.140000e-12 4.840000e-12 5.770000e-12 6.480000e-12 7.060000e-12 7.560000e-12
10 6 1.160000e-11 1.240000e-11 1.350000e-11 1.460000e-11 1.650000e-11 1.860000e-11 2.080000e-11 2.290000e-11
10 7 1.150000e-11 1.220000e-11 1.310000e-11 1.380000e-11 1.470000e-11 1.550000e-11 1.640000e-11 1.730000e-11
10 8 6.410000e-11 5.950000e-11 5.760000e-11 5.900000e-11 6.380000e-11 6.940000e-11 7.470000e-11 7.950000e-11
10 9 2.640000e-11 3.320000e-11 3.790000e-11 4.030000e-11 4.280000e-11 4.470000e-11 4.630000e-11 4.770000e-11
10 11 7.170000e-12 1.850000e-11 2.840000e-11 3.390000e-11 3.940000e-11 4.300000e-11 4.570000e-11 4.800000e-11
10 12 5.340000e-12 1.980000e-11 3.390000e-11 4.310000e-11 5.510000e-11 6.510000e-11 7.360000e-11 8.100000e-11
10 13 2.530000e-13 2.060000e-12 5.290000e-12 7.920000e-12 1.110000e-11 1.350000e-11 1.550000e-11 1.720000e-11
10 14 8.100000e-14 1.400000e-12 4.830000e-12 8.130000e-12 1.280000e-11 1.690000e-11 2.060000e-11 2.420000e-11
10 15 3.980000e-15 1.930000e-13 1.080000e-12 2.240000e-12 4.060000e-12 5.580000e-12 6.850000e-12 7.950000e-12
10 16 6.830000e-16 9.500000e-14 8.240000e-13 2.030000e-12 4.270000e-12 6.420000e-12 8.420000e-12 1.030000e-11
10 17 4.010000e-17 1.440000e-14 2.060000e-13 6.430000e-13 1.650000e-12 2.730000e-12 3.750000e-12 4.690000e-12
10 18 6.360000e-18 6.460000e-15 1.390000e-13 5.070000e-13 1.460000e-12 2.550000e-12 3.630000e-12 4.660000e-12
10 19 5.520000e-19 1.560000e-15 5.330000e-14 2.390000e-13 8.270000e-13 1.600000e-12 2.420000e-12 3.230000e-12
10 20 4.500000e-20 3.590000e-16 2.030000e-14 1.130000e-13 4.680000e-13 9.920000e-13 1.590000e-12 2.200000e-12
11 0 1.490000e-13 1.580000e-13 1.900000e-13 2.380000e-13 3.270000e-13 4.090000e-13 4.800000e-13 5.400000e-13
11 1 3.560000e-13 3.980000e-13 5.020000e-13 6.340000e-13 8.620000e-13 1.060000e-12 1.230000e-12 1.380000e-12
11 2 1.330000e-12 1.360000e-12 1.490000e-12 1.690000e-12 2.060000e-12 2.400000e-12 2.700000e-12 2.940000e-12
11 3 9.500000e-13 1.100000e-12 1.460000e-12 1.880000e-12 2.550000e-12 3.110000e-12 3.590000e-12 4.000000e-12
11 4 2.370000e-12 2.440000e-12 2.660000e-12 2.990000e-12 3.560000e-12 4.060000e-12 4.490000e-12 4.860000e-12
11 5 3.680000e-12 4.300000e-12 5.190000e-12 6.020000e-12 7.220000e-12 8.280000e-12 9.260000e-12 1.020000e-11
11 6 3.280000e-12 3.860000e-12 4.650000e-12 5.320000e-12 6.190000e-12 6.870000e-12 7.430000e-12 7.920000e-12
11 7 1.300000e-11 1.390000e-11 1.490000e-11 1.580000e-11 1.760000e-11 1.960000e-11 2.170000e-11 2.370000e-11
11 8 1.210000e-11 1.300000e-11 1.370000e-11 1.430000e-11 1.510000e-11 1.590000e-11 1.670000e-11 1.750000e-11
11 9 6.480000e-11 6.210000e-11 5.990000e-11 6.080000e-11 6.520000e-11 7.050000e-11 7.580000e-11 8.050000e-11
11 10 2.390000e-11 3.220000e-11 3.750000e-11 4.020000e-11 4.280000e-11 4.470000e-11 4.630000e-11 4.780000e-11
11 12 7.020000e-12 1.820000e-11 2.780000e-11 3.320000e-11 3.870000e-11 4.230000e-11 4.500000e-11 4.730000e-11
11 13 4.590000e-12 1.830000e-11 3.240000e-11 4.170000e-11 5.370000e-11 6.370000e-11 7.220000e-11 7.950000e-11
11 14 2.000000e-13 1.870000e-12 5.100000e-12 7.750000e-12 1.090000e-11 1.330000e-11 1.520000e-11 1.690000e-11
11 15 4.900000e-14 1.160000e-12 4.440000e-12 7.690000e-12 1.230000e-11 1.630000e-11 2.000000e-11 2.350000e-11
11 16 1.910000e-15 1.390000e-13 9.080000e-13 1.980000e-12 3.740000e-12 5.240000e-12 6.490000e-12 7.570000e-12
11 17 4.050000e-16 6.970000e-14 6.890000e-13 1.790000e-12 3.920000e-12 6.010000e-12 7.950000e-12 9.770000e-12
11 18 2.030000e-17 1.060000e-14 1.750000e-13 5.730000e-13 1.520000e-12 2.550000e-12 3.530000e-12 4.430000e-12
11 19 3.270000e-18 4.770000e-15 1.180000e-13 4.520000e-13 1.350000e-12 2.390000e-12 3.440000e-12 4.430000e-12
11 20 2.220000e-19 9.300000e-16 3.960000e-14 1.950000e-13 7.220000e-13 1.440000e-12 2.220000e-12 2.990000e-12
12 0 9.070000e-14 1.050000e-13 1.350000e-13 1.710000e-13 2.320000e-13 2.880000e-13 3.350000e-13 3.740000e-13
12 1 3.140000e-13 3.470000e-13 4.280000e-13 5.420000e-13 7.580000e-13 9.640000e-13 1.150000e-12 1.310000e-12
12 2 4.300000e-13 4.990000e-13 6.480000e-13 8.340000e-13 1.160000e-12 1.450000e-12 1.700000e-12 1.910000e-12
12 3 1.470000e-12 1.540000e-12 1.700000e-12 1.940000e-12 2.380000e-12 2.790000e-12 3.140000e-12 3.440000e-12
12 4 1.210000e-12 1.380000e-12 1.760000e-12 2.200000e-12 2.910000e-12 3.520000e-12 4.040000e-12 4.500000e-12
12 5 2.360000e-12 2.480000e-12 2.750000e-12 3.110000e-12 3.720000e-12 4.260000e-12 4.720000e-12 5.120000e-12
12 6 4.390000e-12 4.980000e-12 5.800000e-12 6.580000e-12 7.730000e-12 8.780000e-12 9.760000e-12 1.070000e-11
12 7 3.820000e-12 4.370000e-12 5.040000e-12 5.640000e-12 6.460000e-12 7.110000e-12 7.660000e-12 8.150000e-12
12 8 1.480000e-11 1.550000e-11 1.600000e-11 1.670000e-11 1.830000e-11 2.020000e-11 2.230000e-11 2.440000e-11
12 9 1.280000e-11 1.370000e-11 1.430000e-11 1.470000e-11 1.540000e-11 1.610000e-11 1.690000e-11 1.780000e-11
12 10 6.710000e-11 6.430000e-11 6.160000e-11 6.220000e-11 6.640000e-11 7.160000e-11 7.670000e-11 8.140000e-11
12 11 2.650000e-11 3.390000e-11 3.820000e-11 4.050000e-11 4.290000e-11 4.480000e-11 4.640000e-11 4.790000e-11
12 13 7.340000e-12 1.740000e-11 2.670000e-11 3.220000e-11 3.790000e-11 4.170000e-11 4.450000e-11 4.690000e-11
12 14 4.600000e-12 1.800000e-11 3.200000e-11 4.140000e-11 5.330000e-11 6.310000e-11 7.140000e-11 7.860000e-11
12 15 1.450000e-13 1.700000e-12 4.880000e-12 7.510000e-12 1.070000e-11 1.300000e-11 1.490000e-11 1.660000e-11
12 16 2.630000e-14 8.690000e-13 3.770000e-12 6.870000e-12 1.150000e-11 1.550000e-11 1.920000e-11 2.260000e-11
12 17 1.160000e-15 9.960000e-14 7.420000e-13 1.720000e-12 3.410000e-12 4.890000e-12 6.130000e-12 7.200000e-12
12 18 2.160000e-16 5.410000e-14 6.070000e-13 1.640000e-12 3.700000e-12 5.720000e-12 7.610000e-12 9.370000e-12
12 19 1.130000e-17 8.100000e-15 1.500000e-13 5.130000e-13 1.410000e-12 2.390000e-12 3.340000e-12 4.220000e-12
12 20 1.640000e-18 3.280000e-15 9.640000e-14 3.950000e-13 1.240000e-12 2.240000e-12 3.250000e-12 4.210000e-12
13 0 5.520000e-14 6.290000e-14 8.470000e-14 1.150000e-13 1.720000e-13 2.310000e-13 2.840000e-13 3.310000e-13
13 1 1.850000e-13 2.090000e-13 2.780000e-13 3.670000e-13 5.260000e-13 6.730000e-13 8.000000e-13 9.060000e-13
13 2 4.290000e-13 4.520000e-13 5.590000e-13 7.160000e-13 1.020000e-12 1.310000e-12 1.560000e-12 1.790000e-12
13 3 5.060000e-13 5.600000e-13 7.340000e-13 9.590000e-13 1.350000e-12 1.710000e-12 2.020000e-12 2.290000e-12
13 4 1.620000e-12 1.640000e-12 1.810000e-12 2.090000e-12 2.580000e-12 3.040000e-12 3.430000e-12 3.780000e-12
13 5 1.540000e-12 1.590000e-12 1.970000e-12 2.440000e-12 3.180000e-12 3.830000e-12 4.380000e-12 4.870000e-12
13 6 2.470000e-12 2.540000e-12 2.840000e-12 3.230000e-12 3.870000e-12 4.430000e-12 4.910000e-12 5.330000e-12
13 7 5.150000e-12 5.350000e-12 6.100000e-12 6.890000e-12 8.070000e-12 9.140000e-12 1.010000e-11 1.110000e-11
13 8 4.410000e-12 4.610000e-12 5.220000e-12 5.830000e-12 6.650000e-12 7.300000e-12 7.850000e-12 8.340000e-12
13 9 1.660000e-11 1.610000e-11 1.630000e-11 1.700000e-11 1.870000e-11 2.070000e-11 2.280000e-11 2.490000e-11
13 10 1.360000e-11 1.330000e-11 1.380000e-11 1.440000e-11 1.520000e-11 1.600000e-11 1.690000e-11 1.780000e-11
13 11 7.410000e-11 6.800000e-11 6.380000e-11 6.400000e-11 6.780000e-11 7.280000e-11 7.780000e-11 8.240000e-11
13 12 3.140000e-11 3.470000e-11 3.820000e-11 4.050000e-11 4.310000e-11 4.500000e-11 4.660000e-11 4.800000e-11
13 14 1.040000e-11 2.180000e-11 3.060000e-11 3.540000e-11 4.010000e-11 4.320000e-11 4.570000e-11 4.770000e-11
13 15 2.850000e-12 1.500000e-11 2.960000e-11 3.950000e-11 5.190000e-11 6.190000e-11 7.030000e-11 7.750000e-11
13 16 8.040000e-14 1.290000e-12 4.160000e-12 6.710000e-12 9.890000e-12 1.230000e-11 1.420000e-11 1.590000e-11
13 17 1.960000e-14 7.150000e-13 3.380000e-12 6.390000e-12 1.090000e-11 1.490000e-11 1.860000e-11 2.200000e-11
13 18 6.490000e-16 7.760000e-14 6.510000e-13 1.580000e-12 3.220000e-12 4.670000e-12 5.900000e-12 6.960000e-12
13 19 1.370000e-16 4.400000e-14 5.400000e-13 1.510000e-12 3.480000e-12 5.450000e-12 7.280000e-12 9.000000e-12
13 20 6.130000e-18 5.700000e-15 1.230000e-13 4.490000e-13 1.290000e-12 2.240000e-12 3.160000e-12 4.010000e-12
14 0 2.990000e-14 3.610000e-14 5.460000e-14 7.850000e-14 1.230000e-13 1.650000e-13 2.030000e-13 2.350000e-13
14 1 1.270000e-13 1.410000e-13 1.940000e-13 2.660000e-13 4.060000e-13 5.490000e-13 6.820000e-13 8.010000e-13
14 2 2.470000e-13 2.770000e-13 3.750000e-13 4.990000e-13 7.220000e-13 9.339999e-13 1.120000e-12 1.280000e-12
14 3 5.280000e-13 5.430000e-13 6.770000e-13 8.630000e-13 1.210000e-12 1.550000e-12 1.860000e-12 2.140000e-12
14 4 5.880000e-13 6.500000e-13 8.580000e-13 1.110000e-12 1.540000e-12 1.940000e-12 2.290000e-12 2.590000e-12
14 5 1.870000e-12 1.800000e-12 2.010000e-12 2.300000e-12 2.820000e-12 3.300000e-12 3.710000e-12 4.080000e-12
14 6 1.900000e-12 1.980000e-12 2.410000e-12 2.880000e-12 3.610000e-12 4.240000e-12 4.780000e-12 5.270000e-12
14 7 3.040000e-12 2.860000e-12 3.140000e-12 3.530000e-12 4.150000e-12 4.700000e-12 5.170000e-12 5.580000e-12
14 8 6.260000e-12 6.370000e-12 7.100000e-12 7.800000e-12 8.840000e-12 9.810000e-12 1.070000e-11 1.160000e-11
14 9 5.580000e-12 5.500000e-12 6.030000e-12 6.550000e-12 7.240000e-12 7.790000e-12 8.270000e-12 8.700000e-12
14 10 2.100000e-11 1.910000e-11 1.880000e-11 1.910000e-11 2.030000e-11 2.200000e-11 2.390000e-11 2.590000e-11
14 11 1.560000e-11 1.470000e-11 1.500000e-11 1.540000e-11 1.600000e-11 1.660000e-11 1.740000e-11 1.820000e-11
14 12 9.500000e-11 7.600000e-11 6.840000e-11 6.730000e-11 7.020000e-11 7.470000e-11 7.940000e-11 8.380000e-11
14 13 5.010000e-11 4.620000e-11 4.560000e-11 4.580000e-11 4.650000e-11 4.750000e-11 4.850000e-11 4.960000e-11
14 15 6.860000e-12 1.760000e-11 2.700000e-11 3.240000e-11 3.800000e-11 4.160000e-11 4.440000e-11 4.660000e-11
14 16 1.980000e-12 1.310000e-11 2.770000e-11 3.790000e-11 5.060000e-11 6.070000e-11 6.910000e-11 7.640000e-11
14 17 6.830000e-14 1.100000e-12 3.760000e-12 6.240000e-12 9.430000e-12 1.180000e-11 1.380000e-11 1.550000e-11
14 18 1.390000e-14 6.370000e-13 3.240000e-12 6.240000e-12 1.080000e-11 1.480000e-11 1.830000e-11 2.170000e-11
14 19 4.680000e-16 6.670000e-14 5.950000e-13 1.480000e-12 3.080000e-12 4.500000e-12 5.710000e-12 6.750000e-12
14 20 8.500000e-17 3.320000e-14 4.610000e-13 1.360000e-12 3.250000e-12 5.160000e-12 6.950000e-12 8.630000e-12
15 0 2.720000e-14 3.320000e-14 4.600000e-14 6.320000e-14 9.850000e-14 1.360000e-13 1.720000e-13 2.050000e-13
15 1 7.760000e-14 9.640000e-14 1.370000e-13 1.920000e-13 3.000000e-13 4.080000e-13 5.070000e-13 5.930000e-13
15 2 1.780000e-13 2.110000e-13 2.790000e-13 3.720000e-13 5.600000e-13 7.570000e-13 9.430000e-13 1.110000e-12
15 3 3.260000e-13 3.830000e-13 4.920000e-13 6.280000e-13 8.820000e-13 1.130000e-12 1.360000e-12 1.550000e-12
15 4 6.290000e-13 6.980000e-13 8.420000e-13 1.040000e-12 1.410000e-12 1.780000e-12 2.110000e-12 2.410000e-12
15 5 7.580000e-13 8.640000e-13 1.070000e-12 1.320000e-12 1.760000e-12 2.160000e-12 2.520000e-12 2.840000e-12
15 6 1.800000e-12 1.970000e-12 2.240000e-12 2.540000e-12 3.070000e-12 3.540000e-12 3.960000e-12 4.330000e-12
15 7 2.450000e-12 2.610000e-12 2.980000e-12 3.410000e-12 4.080000e-12 4.660000e-12 5.180000e-12 5.650000e-12
15 8 2.640000e-12 2.930000e-12 3.350000e-12 3.770000e-12 4.400000e-12 4.930000e-12 5.390000e-12 5.790000e-12
15 9 7.020000e-12 7.470000e-12 8.070000e-12 8.630000e-12 9.520000e-12 1.040000e-11 1.130000e-11 1.210000e-11
15 10 5.640000e-12 5.980000e-12 6.530000e-12 7.000000e-12 7.630000e-12 8.130000e-12 8.560000e-12 8.960000e-12
15 11 2.090000e-11 2.060000e-11 2.020000e-11 2.030000e-11 2.130000e-11 2.290000e-11 2.470000e-11 2.660000e-11
15 12 1.630000e-11 1.620000e-11 1.620000e-11 1.630000e-11 1.660000e-11 1.720000e-11 1.780000e-11 1.860000e-11
15 13 7.520000e-11 7.170000e-11 6.830000e-11 6.810000e-11 7.130000e-11 7.580000e-11 8.040000e-11 8.480000e-11
15 14 3.750000e-11 3.980000e-11 4.180000e-11 4.320000e-11 4.490000e-11 4.640000e-11 4.780000e-11 4.910000e-11
15 16 4.330000e-12 1.500000e-11 2.520000e-11 3.110000e-11 3.710000e-11 4.100000e-11 4.390000e-11 4.620000e-11
15 17 1.870000e-12 1.200000e-11 2.630000e-11 3.670000e-11 4.960000e-11 5.980000e-11 6.820000e-11 7.550000e-11
15 18 4.580000e-14 9.280000e-13 3.450000e-12 5.890000e-12 9.080000e-12 1.150000e-11 1.350000e-11 1.520000e-11
15 19 1.070000e-14 5.760000e-13 3.080000e-12 6.050000e-12 1.060000e-11 1.450000e-11 1.800000e-11 2.130000e-11
15 20 3.290000e-16 5.390000e-14 5.270000e-13 1.360000e-12 2.910000e-12 4.320000e-12 5.520000e-12 6.550000e-12
16 0 1.290000e-14 1.790000e-14 2.830000e-14 4.270000e-14 7.210000e-14 1.030000e-13 1.330000e-13 1.590000e-13
16 1 5.070000e-14 6.710000e-14 9.800000e-14 1.400000e-13 2.270000e-13 3.210000e-13 4.120000e-13 4.980000e-13
16 2 9.610000e-14 1.270000e-13 1.840000e-13 2.610000e-13 4.100000e-13 5.640000e-13 7.080000e-13 8.370000e-13
16 3 1.880000e-13 2.380000e-13 3.240000e-13 4.380000e-13 6.650000e-13 9.020000e-13 1.130000e-12 1.330000e-12
16 4 3.250000e-13 4.100000e-13 5.410000e-13 6.990000e-13 9.870000e-13 1.270000e-12 1.520000e-12 1.740000e-12
16 5 6.040000e-13 7.280000e-13 9.050000e-13 1.130000e-12 1.540000e-12 1.940000e-12 2.300000e-12 2.620000e-12
16 6 7.240000e-13 8.920000e-13 1.140000e-12 1.420000e-12 1.900000e-12 2.320000e-12 2.700000e-12 3.030000e-12
16 7 1.630000e-12 1.920000e-12 2.250000e-12 2.600000e-12 3.180000e-12 3.680000e-12 4.120000e-12 4.500000e-12
16 8 2.190000e-12 2.630000e-12 3.140000e-12 3.620000e-12 4.340000e-12 4.940000e-12 5.460000e-12 5.930000e-12
16 9 2.490000e-12 2.930000e-12 3.390000e-12 3.850000e-12 4.510000e-12 5.060000e-12 5.530000e-12 5.930000e-12
16 10 5.970000e-12 7.090000e-12 7.970000e-12 8.670000e-12 9.680000e-12 1.060000e-11 1.150000e-11 1.240000e-11
16 11 5.010000e-12 5.960000e-12 6.650000e-12 7.170000e-12 7.820000e-12 8.320000e-12 8.740000e-12 9.130000e-12
16 12 1.830000e-11 1.990000e-11 2.010000e-11 2.040000e-11 2.160000e-11 2.320000e-11 2.510000e-11 2.700000e-11
16 13 1.310000e-11 1.490000e-11 1.550000e-11 1.580000e-11 1.640000e-11 1.700000e-11 1.780000e-11 1.850000e-11
16 14 6.680000e-11 7.110000e-11 6.890000e-11 6.900000e-11 7.220000e-11 7.680000e-11 8.130000e-11 8.560000e-11
16 15 2.670000e-11 3.600000e-11 4.050000e-11 4.260000e-11 4.480000e-11 4.650000e-11 4.790000e-11 4.920000e-11
16 17 9.330000e-12 2.090000e-11 2.940000e-11 3.410000e-11 3.900000e-11 4.230000e-11 4.480000e-11 4.690000e-11
16 18 1.590000e-12 1.130000e-11 2.570000e-11 3.620000e-11 4.920000e-11 5.940000e-11 6.780000e-11 7.500000e-11
16 19 3.970000e-14 8.650000e-13 3.280000e-12 5.670000e-12 8.840000e-12 1.120000e-11 1.320000e-11 1.490000e-11
16 20 8.340000e-15 4.850000e-13 2.790000e-12 5.680000e-12 1.020000e-11 1.410000e-11 1.760000e-11 2.080000e-11
17 0 8.480000e-15 1.160000e-14 1.920000e-14 2.980000e-14 5.220000e-14 7.730000e-14 1.030000e-13 1.280000e-13
17 1 2.880000e-14 3.980000e-14 6.510000e-14 9.960000e-14 1.710000e-13 2.490000e-13 3.250000e-13 3.970000e-13
17 2 6.790000e-14 8.820000e-14 1.330000e-13 1.920000e-13 3.120000e-13 4.450000e-13 5.760000e-13 7.010000e-13
17 3 1.140000e-13 1.490000e-13 2.220000e-13 3.140000e-13 4.920000e-13 6.760000e-13 8.510000e-13 1.010000e-12
17 4 2.110000e-13 2.610000e-13 3.660000e-13 4.990000e-13 7.550000e-13 1.020000e-12 1.270000e-12 1.500000e-12
17 5 3.540000e-13 4.360000e-13 5.930000e-13 7.740000e-13 1.090000e-12 1.390000e-12 1.660000e-12 1.900000e-12
17 6 6.470000e-13 7.470000e-13 9.650000e-13 1.220000e-12 1.670000e-12 2.090000e-12 2.460000e-12 2.790000e-12
17 7 7.900000e-13 9.360000e-13 1.230000e-12 1.550000e-12 2.050000e-12 2.490000e-12 2.870000e-12 3.200000e-12
17 8 1.600000e-12 1.820000e-12 2.230000e-12 2.650000e-12 3.280000e-12 3.810000e-12 4.260000e-12 4.650000e-12
17 9 2.700000e-12 2.890000e-12 3.420000e-12 3.930000e-12 4.670000e-12 5.260000e-12 5.770000e-12 6.220000e-12
17 10 2.440000e-12 2.740000e-12 3.330000e-12 3.870000e-12 4.610000e-12 5.190000e-12 5.660000e-12 6.060000e-12
17 11 7.400000e-12 7.640000e-12 8.420000e-12 9.110000e-12 1.010000e-11 1.100000e-11 1.180000e-11 1.270000e-11
17 12 5.600000e-12 5.860000e-12 6.590000e-12 7.180000e-12 7.910000e-12 8.440000e-12 8.870000e-12 9.270000e-12
17 13 2.220000e-11 2.110000e-11 2.090000e-11 2.120000e-11 2.230000e-11 2.390000e-11 2.570000e-11 2.760000e-11
17 14 1.600000e-11 1.540000e-11 1.560000e-11 1.600000e-11 1.660000e-11 1.720000e-11 1.790000e-11 1.870000e-11
17 15 8.020000e-11 7.410000e-11 7.070000e-11 7.060000e-11 7.370000e-11 7.800000e-11 8.240000e-11 8.660000e-11
17 16 6.500000e-11 5.340000e-11 4.900000e-11 4.800000e-11 4.800000e-11 4.870000e-11 4.960000e-11 5.050000e-11
17 18 6.050000e-12 1.670000e-11 2.620000e-11 3.190000e-11 3.760000e-11 4.130000e-11 4.400000e-11 4.630000e-11
17 19 1.400000e-12 1.070000e-11 2.480000e-11 3.540000e-11 4.850000e-11 5.870000e-11 6.710000e-11 7.420000e-11
17 20 3.530000e-14 7.880000e-13 3.110000e-12 5.490000e-12 8.660000e-12 1.110000e-11 1.300000e-11 1.470000e-11
18 0 7.500000e-15 9.800000e-15 1.540000e-14 2.350000e-14 4.130000e-14 6.220000e-14 8.400000e-14 1.060000e-13
18 1 2.380000e-14 3.100000e-14 4.840000e-14 7.320000e-14 1.270000e-13 1.880000e-13 2.530000e-13 3.170000e-13
18 2 4.930000e-14 6.360000e-14 9.650000e-14 1.420000e-13 2.380000e-13 3.450000e-13 4.540000e-13 5.590000e-13
18 3 9.980000e-14 1.230000e-13 1.740000e-13 2.420000e-13 3.830000e-13 5.390000e-13 6.960000e-13 8.480000e-13
18 4 1.610000e-13 1.990000e-13 2.790000e-13 3.800000e-13 5.740000e-13 7.750000e-13 9.670000e-13 1.150000e-12
18 5 2.820000e-13 3.330000e-13 4.410000e-13 5.820000e-13 8.540000e-13 1.130000e-12 1.400000e-12 1.650000e-12
18 6 4.540000e-13 5.390000e-13 7.000000e-13 8.870000e-13 1.210000e-12 1.520000e-12 1.790000e-12 2.040000e-12
18 7 7.850000e-13 8.890000e-13 1.110000e-12 1.380000e-12 1.830000e-12 2.260000e-12 2.630000e-12 2.970000e-12
18 8 9.830000e-13 1.150000e-12 1.440000e-12 1.770000e-12 2.270000e-12 2.710000e-12 3.080000e-12 3.400000e-12
18 9 1.850000e-12 2.050000e-12 2.450000e-12 2.860000e-12 3.490000e-12 4.020000e-12 4.450000e-12 4.840000e-12
18 10 3.040000e-12 3.360000e-12 3.900000e-12 4.410000e-12 5.100000e-12 5.660000e-12 6.140000e-12 6.560000e-12
18 11 2.920000e-12 3.180000e-12 3.700000e-12 4.210000e-12 4.910000e-12 5.450000e-12 5.900000e-12 6.280000e-12
18 12 8.240000e-12 8.680000e-12 9.340000e-12 9.900000e-12 1.070000e-11 1.150000e-11 1.230000e-11 1.310000e-11
18 13 5.780000e-12 6.260000e-12 6.990000e-12 7.550000e-12 8.240000e-12 8.730000e-12 9.140000e-12 9.500000e-12
18 14 2.560000e-11 2.420000e-11 2.330000e-11 2.310000e-11 2.380000e-11 2.510000e-11 2.680000e-11 2.850000e-11
18 15 1.540000e-11 1.560000e-11 1.600000e-11 1.640000e-11 1.690000e-11 1.750000e-11 1.820000e-11 1.900000e-11
18 16 8.690000e-11 7.900000e-11 7.430000e-11 7.350000e-11 7.600000e-11 8.000000e-11 8.410000e-11 8.800000e-11
18 17 4.750000e-11 4.540000e-11 4.550000e-11 4.600000e-11 4.710000e-11 4.830000e-11 4.930000e-11 5.040000e-11
18 19 4.850000e-12 1.460000e-11 2.420000e-11 3.010000e-11 3.630000e-11 4.030000e-11 4.330000e-11 4.560000e-11
18 20 1.300000e-12 9.650000e-12 2.320000e-11 3.380000e-11 4.720000e-11 5.750000e-11 6.600000e-11 7.320000e-11
19 0 6.570000e-15 7.510000e-15 1.120000e-14 1.720000e-14 3.070000e-14 4.690000e-14 6.440000e-14 8.210000e-14
19 1 2.370000e-14 2.660000e-14 3.820000e-14 5.650000e-14 9.820000e-14 1.480000e-13 2.020000e-13 2.570000e-13
19 2 4.730000e-14 5.260000e-14 7.370000e-14 1.070000e-13 1.790000e-13 2.640000e-13 3.540000e-13 4.430000e-13
19 3 8.470000e-14 9.370000e-14 1.290000e-13 1.810000e-13 2.930000e-13 4.180000e-13 5.460000e-13 6.710000e-13
19 4 1.560000e-13 1.670000e-13 2.180000e-13 2.920000e-13 4.460000e-13 6.180000e-13 7.910000e-13 9.590000e-13
19 5 2.500000e-13 2.680000e-13 3.430000e-13 4.490000e-13 6.550000e-13 8.660000e-13 1.070000e-12 1.260000e-12
19 6 4.080000e-13 4.240000e-13 5.240000e-13 6.690000e-13 9.540000e-13 1.240000e-12 1.520000e-12 1.770000e-12
19 7 6.500000e-13 6.780000e-13 8.200000e-13 1.010000e-12 1.340000e-12 1.650000e-12 1.930000e-12 2.180000e-12
19 8 1.060000e-12 1.080000e-12 1.270000e-12 1.540000e-12 2.000000e-12 2.430000e-12 2.800000e-12 3.140000e-12
19 9 1.420000e-12 1.460000e-12 1.700000e-12 2.010000e-12 2.500000e-12 2.930000e-12 3.290000e-12 3.610000e-12
19 10 2.340000e-12 2.360000e-12 2.680000e-12 3.080000e-12 3.700000e-12 4.210000e-12 4.650000e-12 5.020000e-12
19 11 4.170000e-12 4.130000e-12 4.500000e-12 4.930000e-12 5.560000e-12 6.070000e-12 6.510000e-12 6.910000e-12
19 12 3.830000e-12 3.770000e-12 4.140000e-12 4.580000e-12 5.220000e-12 5.730000e-12 6.150000e-12 6.500000e-12
19 13 1.080000e-11 1.030000e-11 1.040000e-11 1.080000e-11 1.140000e-11 1.210000e-11 1.280000e-11 1.350000e-11
19 14 7.650000e-12 7.360000e-12 7.700000e-12 8.120000e-12 8.670000e-12 9.100000e-12 9.450000e-12 9.780000e-12
19 15 3.210000e-11 2.810000e-11 2.580000e-11 2.500000e-11 2.520000e-11 2.620000e-11 2.770000e-11 2.930000e-11
19 16 1.930000e-11 1.750000e-11 1.700000e-11 1.710000e-11 1.740000e-11 1.800000e-11 1.860000e-11 1.930000e-11
19 17 9.730000e-11 8.440000e-11 7.730000e-11 7.580000e-11 7.780000e-11 8.140000e-11 8.530000e-11 8.900000e-11
19 18 4.300000e-11 4.230000e-11 4.340000e-11 4.470000e-11 4.640000e-11 4.780000e-11 4.910000e-11 5.020000e-11
19 20 4.920000e-12 1.460000e-11 2.470000e-11 3.080000e-11 3.710000e-11 4.100000e-11 4.380000e-11 4.610000e-11
20 0 6.100000e-15 5.880000e-15 8.430000e-15 1.270000e-14 2.300000e-14 3.580000e-14 5.010000e-14 6.490000e-14
20 1 1.990000e-14 1.920000e-14 2.760000e-14 4.150000e-14 7.370000e-14 1.130000e-13 1.560000e-13 2.000000e-13
20 2 4.210000e-14 4.010000e-14 5.540000e-14 8.060000e-14 1.380000e-13 2.060000e-13 2.810000e-13 3.560000e-13
20 3 7.430000e-14 7.020000e-14 9.470000e-14 1.340000e-13 2.200000e-13 3.200000e-13 4.260000e-13 5.320000e-13
20 4 1.250000e-13 1.180000e-13 1.560000e-13 2.160000e-13 3.410000e-13 4.790000e-13 6.200000e-13 7.570000e-13
20 5 2.160000e-13 2.000000e-13 2.540000e-13 3.360000e-13 5.050000e-13 6.880000e-13 8.730000e-13 1.050000e-12
20 6 3.460000e-13 3.180000e-13 3.960000e-13 5.110000e-13 7.300000e-13 9.520000e-13 1.160000e-12 1.360000e-12
20 7 5.370000e-13 4.830000e-13 5.850000e-13 7.430000e-13 1.050000e-12 1.350000e-12 1.630000e-12 1.890000e-12
20 8 8.520000e-13 7.670000e-13 9.090000e-13 1.110000e-12 1.460000e-12 1.780000e-12 2.060000e-12 2.300000e-12
20 9 1.340000e-12 1.180000e-12 1.380000e-12 1.660000e-12 2.150000e-12 2.590000e-12 2.970000e-12 3.300000e-12
20 10 1.910000e-12 1.670000e-12 1.900000e-12 2.220000e-12 2.720000e-12 3.150000e-12 3.500000e-12 3.810000e-12
20 11 2.830000e-12 2.490000e-12 2.810000e-12 3.230000e-12 3.870000e-12 4.390000e-12 4.820000e-12 5.190000e-12
20 12 5.530000e-12 4.700000e-12 4.960000e-12 5.370000e-12 5.970000e-12 6.450000e-12 6.860000e-12 7.230000e-12
20 13 4.840000e-12 4.110000e-12 4.420000e-12 4.860000e-12 5.490000e-12 5.980000e-12 6.370000e-12 6.720000e-12
20 14 1.390000e-11 1.130000e-11 1.110000e-11 1.140000e-11 1.190000e-11 1.250000e-11 1.320000e-11 1.390000e-11
20 15 9.860000e-12 8.110000e-12 8.200000e-12 8.550000e-12 9.040000e-12 9.410000e-12 9.730000e-12 1.000000e-11
20 16 4.040000e-11 3.030000e-11 2.700000e-11 2.610000e-11 2.610000e-11 2.710000e-11 2.840000e-11 2.990000e-11
20 17 2.460000e-11 1.920000e-11 1.810000e-11 1.790000e-11 1.810000e-11 1.850000e-11 1.900000e-11 1.970000e-11
20 18 1.150000e-10 8.630000e-11 7.780000e-11 7.640000e-11 7.850000e-11 8.210000e-11 8.590000e-11 8.970000e-11
20 19 4.920000e-11 4.490000e-11 4.590000e-11 4.690000e-11 4.820000e-11 4.930000e-11 5.030000e-11 5.130000e-11
20 19 4.920000e-11 4.490000e-11 4.590000e-11 4.690000e-11 4.820000e-11 4.930000e-11 5.030000e-11 5.130000e-11
