21
10. 15. 20. 30. 40. 50. 60. 70. 80. 90. 100. 120. 140. 160. 180. 200. 220. 240. 260. 280. 300.
01 01 01  01 01 01 0 0 0 0 0 0 0 0 0 0 0 0 0 0 0 0 0 0 0 0 0 
01 01 01  01 01 00 6.19e-11 5.53e-11 5.07e-11 4.52e-11 4.22e-11 4.01e-11 3.87e-11 3.77e-11 3.69e-11 3.63e-11 3.58e-11 3.51e-11 3.46e-11 3.43e-11 3.4e-11 3.37e-11 3.35e-11 3.33e-11 3.31e-11 3.28e-11 3.26e-11 
01 01 01  02 01 02 4.16e-11 4.89e-11 5.18e-11 5.38e-11 5.42e-11 5.42e-11 5.39e-11 5.37e-11 5.36e-11 5.33e-11 5.31e-11 5.28e-11 5.26e-11 5.22e-11 5.22e-11 5.19e-11 5.17e-11 5.15e-11 5.13e-11 5.12e-11 5.1e-11 
01 01 01  02 01 01 2.13e-11 2.57e-11 2.81e-11 3.12e-11 3.33e-11 3.53e-11 3.72e-11 3.88e-11 4.05e-11 4.2e-11 4.33e-11 4.59e-11 4.82e-11 5.01e-11 5.18e-11 5.33e-11 5.45e-11 5.56e-11 5.64e-11 5.71e-11 5.76e-11 
01 01 01  03 01 03 7.11e-12 1.19e-11 1.53e-11 2.02e-11 2.37e-11 2.63e-11 2.85e-11 3.04e-11 3.21e-11 3.33e-11 3.45e-11 3.63e-11 3.76e-11 3.86e-11 3.95e-11 4.01e-11 4.04e-11 4.09e-11 4.11e-11 4.13e-11 4.15e-11 
01 01 01  03 01 02 9.68e-13 1.81e-12 2.54e-12 3.86e-12 5.1e-12 6.25e-12 7.33e-12 8.32e-12 9.25e-12 1.01e-11 1.08e-11 1.22e-11 1.33e-11 1.42e-11 1.5e-11 1.56e-11 1.62e-11 1.67e-11 1.7e-11 1.73e-11 1.75e-11 
01 01 01  04 01 04 1.75e-12 4.51e-12 7.22e-12 1.16e-11 1.5e-11 1.76e-11 1.97e-11 2.14e-11 2.26e-11 2.37e-11 2.46e-11 2.61e-11 2.73e-11 2.8e-11 2.86e-11 2.91e-11 2.95e-11 2.99e-11 3.02e-11 3.04e-11 3.06e-11 
01 01 01  04 01 03 2.39e-13 7.68e-13 1.44e-12 2.92e-12 4.41e-12 5.82e-12 7.16e-12 8.42e-12 9.61e-12 1.07e-11 1.18e-11 1.38e-11 1.56e-11 1.73e-11 1.88e-11 2.03e-11 2.17e-11 2.31e-11 2.43e-11 2.55e-11 2.67e-11 
01 01 01  05 01 05 1.09e-13 5e-13 1.07e-12 2.31e-12 3.5e-12 4.56e-12 5.52e-12 6.4e-12 7.19e-12 7.91e-12 8.57e-12 9.74e-12 1.07e-11 1.16e-11 1.23e-11 1.29e-11 1.34e-11 1.39e-11 1.42e-11 1.46e-11 1.48e-11 
01 01 01  05 01 04 1.37e-14 7.43e-14 1.8e-13 4.92e-13 9.08e-13 1.41e-12 1.97e-12 2.56e-12 3.15e-12 3.77e-12 4.37e-12 5.55e-12 6.61e-12 7.61e-12 8.46e-12 9.25e-12 9.93e-12 1.05e-11 1.1e-11 1.14e-11 1.18e-11 
01 01 01  06 01 06 3.31e-14 3.02e-13 9.13e-13 2.76e-12 4.83e-12 6.79e-12 8.56e-12 1.01e-11 1.15e-11 1.28e-11 1.39e-11 1.58e-11 1.74e-11 1.87e-11 1.97e-11 2.07e-11 2.14e-11 2.21e-11 2.27e-11 2.31e-11 2.35e-11 
01 01 01  06 01 05 2.11e-15 2.32e-14 7.89e-14 2.9e-13 6.04e-13 9.92e-13 1.44e-12 1.91e-12 2.4e-12 2.91e-12 3.4e-12 4.41e-12 5.4e-12 6.39e-12 7.39e-12 8.42e-12 9.45e-12 1.05e-11 1.16e-11 1.27e-11 1.39e-11 
01 01 01  07 01 07 1.15e-15 2.29e-14 9.99e-14 4.23e-13 8.59e-13 1.31e-12 1.73e-12 2.12e-12 2.48e-12 2.81e-12 3.13e-12 3.69e-12 4.2e-12 4.66e-12 5.09e-12 5.45e-12 5.81e-12 6.12e-12 6.41e-12 6.68e-12 6.94e-12 
01 01 01  07 01 06 2.73e-17 6.6e-16 3.29e-15 1.86e-14 5.35e-14 1.17e-13 2.16e-13 3.55e-13 5.34e-13 7.48e-13 9.94e-13 1.57e-12 2.21e-12 2.88e-12 3.57e-12 4.3e-12 4.97e-12 5.62e-12 6.28e-12 6.88e-12 7.47e-12 
01 01 01  08 01 08 7.3e-17 3.74e-15 2.7e-14 1.98e-13 5.42e-13 1.01e-12 1.53e-12 2.08e-12 2.64e-12 3.18e-12 3.73e-12 4.78e-12 5.8e-12 6.77e-12 7.7e-12 8.63e-12 9.53e-12 1.04e-11 1.13e-11 1.22e-11 1.31e-11 
01 01 01  08 01 07 2.77e-18 1.79e-16 1.48e-15 1.32e-14 4.4e-14 9.91e-14 1.81e-13 2.89e-13 4.22e-13 5.76e-13 7.48e-13 1.13e-12 1.55e-12 1.98e-12 2.41e-12 2.83e-12 3.22e-12 3.61e-12 3.97e-12 4.33e-12 4.65e-12 
01 01 01  09 01 09 1.66e-18 2.42e-16 2.95e-15 3.65e-14 1.31e-13 2.86e-13 4.85e-13 7.14e-13 9.59e-13 1.21e-12 1.48e-12 1.98e-12 2.47e-12 2.93e-12 3.36e-12 3.77e-12 4.13e-12 4.47e-12 4.79e-12 5.07e-12 5.32e-12 
01 01 01  09 01 08 2.14e-20 4.35e-18 6.43e-17 1.05e-15 4.79e-15 1.32e-14 2.83e-14 5.18e-14 8.54e-14 1.3e-13 1.87e-13 3.37e-13 5.35e-13 7.8e-13 1.06e-12 1.39e-12 1.75e-12 2.14e-12 2.56e-12 3.01e-12 3.48e-12 
01 01 01  10 01 10 3.62e-20 1.53e-17 3.2e-16 6.8e-15 3.21e-14 8.32e-14 1.6e-13 2.58e-13 3.75e-13 5.06e-13 6.48e-13 9.53e-13 1.28e-12 1.62e-12 1.96e-12 2.3e-12 2.64e-12 2.98e-12 3.31e-12 3.65e-12 3.96e-12 
01 01 01  10 01 09 7.85e-22 5.93e-19 1.76e-17 5.99e-16 3.89e-15 1.28e-14 2.95e-14 5.51e-14 8.97e-14 1.34e-13 1.86e-13 3.1e-13 4.55e-13 6.14e-13 7.79e-13 9.47e-13 1.12e-12 1.28e-12 1.44e-12 1.6e-12 1.75e-12 
01 01 01  11 01 11 5.88e-22 9.04e-19 3.62e-17 1.5e-15 9.91e-15 3.15e-14 6.94e-14 1.24e-13 1.95e-13 2.81e-13 3.8e-13 6.19e-13 9.04e-13 1.23e-12 1.6e-12 2e-12 2.43e-12 2.89e-12 3.36e-12 3.88e-12 4.43e-12 
01 01 01  11 01 10 7.48e-24 1.94e-20 1.06e-18 6.83e-17 6.28e-16 2.6e-15 7.11e-15 1.53e-14 2.81e-14 4.64e-14 7.08e-14 1.4e-13 2.39e-13 3.67e-13 5.28e-13 7.2e-13 9.44e-13 1.2e-12 1.48e-12 1.79e-12 2.12e-12 
01 01 01  12 01 12 1.9e-24 1.06e-20 8.06e-19 6.34e-17 5.78e-16 2.22e-15 5.53e-15 1.08e-14 1.81e-14 2.74e-14 3.87e-14 6.68e-14 1.02e-13 1.43e-13 1.89e-13 2.41e-13 2.99e-13 3.61e-13 4.26e-13 4.97e-13 5.67e-13 
01 01 01  12 01 11 2.2e-25 2.54e-21 2.86e-19 3.51e-17 4.24e-16 2.02e-15 5.96e-15 1.34e-14 2.54e-14 4.24e-14 6.55e-14 1.31e-13 2.24e-13 3.46e-13 4.97e-13 6.78e-13 8.85e-13 1.12e-12 1.38e-12 1.67e-12 1.99e-12 
01 01 01  03 03 01 1.09e-16 4.2e-15 2.59e-14 1.61e-13 4.13e-13 7.5e-13 1.14e-12 1.56e-12 2e-12 2.45e-12 2.9e-12 3.8e-12 4.67e-12 5.53e-12 6.36e-12 7.15e-12 7.92e-12 8.65e-12 9.35e-12 1e-11 1.07e-11 
01 01 01  03 03 00 1.57e-17 5.73e-16 3.43e-15 2.11e-14 5.43e-14 9.85e-14 1.49e-13 2.05e-13 2.62e-13 3.21e-13 3.81e-13 5.01e-13 6.18e-13 7.33e-13 8.44e-13 9.48e-13 1.05e-12 1.14e-12 1.23e-12 1.32e-12 1.39e-12 
01 01 01  04 03 02 2.28e-17 1.37e-15 1.05e-14 7.93e-14 2.18e-13 4.05e-13 6.12e-13 8.31e-13 1.05e-12 1.27e-12 1.49e-12 1.91e-12 2.31e-12 2.68e-12 3.04e-12 3.38e-12 3.69e-12 4e-12 4.27e-12 4.54e-12 4.81e-12 
01 01 01  04 03 01 9.39e-18 5.59e-16 4.25e-15 3.23e-14 9.07e-14 1.73e-13 2.74e-13 3.87e-13 5.1e-13 6.4e-13 7.72e-13 1.04e-12 1.3e-12 1.54e-12 1.76e-12 1.98e-12 2.17e-12 2.36e-12 2.53e-12 2.7e-12 2.86e-12 
01 01 01  05 03 03 4.84e-18 5.55e-16 5.91e-15 6.25e-14 2.02e-13 4.07e-13 6.53e-13 9.19e-13 1.19e-12 1.46e-12 1.72e-12 2.22e-12 2.7e-12 3.13e-12 3.54e-12 3.91e-12 4.24e-12 4.56e-12 4.86e-12 5.14e-12 5.39e-12 
01 01 01  05 03 02 2.48e-18 2.89e-16 3.12e-15 3.34e-14 1.1e-13 2.3e-13 3.77e-13 5.45e-13 7.22e-13 9.1e-13 1.09e-12 1.47e-12 1.84e-12 2.2e-12 2.56e-12 2.9e-12 3.25e-12 3.57e-12 3.91e-12 4.24e-12 4.57e-12 
01 01 01  06 03 04 4.63e-19 1.1e-16 1.74e-15 2.87e-14 1.2e-13 2.87e-13 5.19e-13 7.97e-13 1.1e-12 1.41e-12 1.73e-12 2.34e-12 2.9e-12 3.4e-12 3.85e-12 4.25e-12 4.62e-12 4.96e-12 5.25e-12 5.54e-12 5.84e-12 
01 01 01  06 03 03 2.12e-19 5.21e-17 8.36e-16 1.41e-14 5.98e-14 1.45e-13 2.65e-13 4.11e-13 5.73e-13 7.48e-13 9.22e-13 1.27e-12 1.6e-12 1.89e-12 2.16e-12 2.4e-12 2.61e-12 2.8e-12 2.97e-12 3.11e-12 3.26e-12 
01 01 01  07 03 05 4.95e-20 2.61e-17 6.07e-16 1.43e-14 6.88e-14 1.77e-13 3.27e-13 5.1e-13 7.04e-13 9.09e-13 1.11e-12 1.52e-12 1.9e-12 2.26e-12 2.59e-12 2.92e-12 3.22e-12 3.49e-12 3.75e-12 4e-12 4.24e-12 
01 01 01  07 03 04 1.18e-20 6.52e-18 1.57e-16 3.94e-15 2.01e-14 5.39e-14 1.04e-13 1.69e-13 2.43e-13 3.25e-13 4.12e-13 5.96e-13 7.83e-13 9.72e-13 1.16e-12 1.33e-12 1.5e-12 1.66e-12 1.81e-12 1.95e-12 2.08e-12 
01 01 01  08 03 06 2e-21 2.66e-18 9.82e-17 3.71e-15 2.33e-14 7.09e-14 1.5e-13 2.57e-13 3.85e-13 5.26e-13 6.82e-13 9.97e-13 1.33e-12 1.64e-12 1.94e-12 2.23e-12 2.5e-12 2.78e-12 3.05e-12 3.29e-12 3.55e-12 
01 01 01  08 03 05 3.09e-22 4.17e-19 1.56e-17 6e-16 3.83e-15 1.18e-14 2.54e-14 4.41e-14 6.72e-14 9.39e-14 1.23e-13 1.86e-13 2.53e-13 3.22e-13 3.91e-13 4.6e-13 5.29e-13 6e-13 6.67e-13 7.37e-13 8.06e-13 
01 01 01  09 03 07 1.05e-22 4.13e-19 2.62e-17 1.7e-15 1.4e-14 5.01e-14 1.17e-13 2.14e-13 3.39e-13 4.83e-13 6.47e-13 9.86e-13 1.35e-12 1.69e-12 2.03e-12 2.35e-12 2.65e-12 2.93e-12 3.2e-12 3.42e-12 3.66e-12 
01 01 01  09 03 06 1.41e-23 5.32e-20 3.3e-18 2.06e-16 1.66e-15 5.94e-15 1.42e-14 2.69e-14 4.45e-14 6.68e-14 9.33e-14 1.6e-13 2.42e-13 3.37e-13 4.44e-13 5.59e-13 6.81e-13 8.11e-13 9.46e-13 1.09e-12 1.23e-12 
01 01 01  10 03 08 2.32e-24 3.1e-20 3.65e-18 4.43e-16 5.01e-15 2.19e-14 5.95e-14 1.22e-13 2.12e-13 3.26e-13 4.58e-13 7.81e-13 1.15e-12 1.53e-12 1.93e-12 2.33e-12 2.71e-12 3.08e-12 3.44e-12 3.77e-12 4.09e-12 
01 01 01  10 03 07 5.4e-25 7.02e-21 8.01e-19 9.12e-17 9.76e-16 4.04e-15 1.05e-14 2.09e-14 3.5e-14 5.28e-14 7.35e-14 1.24e-13 1.85e-13 2.58e-13 3.4e-13 4.34e-13 5.38e-13 6.52e-13 7.75e-13 9.12e-13 1.06e-12 
01 01 00  01 01 01 6.33e-11 5.61e-11 5.13e-11 4.56e-11 4.24e-11 4.03e-11 3.89e-11 3.78e-11 3.7e-11 3.64e-11 3.59e-11 3.52e-11 3.47e-11 3.43e-11 3.4e-11 3.37e-11 3.35e-11 3.33e-11 3.31e-11 3.28e-11 3.26e-11 
01 01 00  01 01 00 0 0 0 0 0 0 0 0 0 0 0 0 0 0 0 0 0 0 0 0 0 
01 01 00  02 01 02 2.74e-11 3.27e-11 3.56e-11 3.91e-11 4.12e-11 4.26e-11 4.37e-11 4.43e-11 4.47e-11 4.49e-11 4.51e-11 4.53e-11 4.52e-11 4.5e-11 4.47e-11 4.44e-11 4.4e-11 4.38e-11 4.36e-11 4.33e-11 4.32e-11 
01 01 00  02 01 01 2.81e-11 3.29e-11 3.51e-11 3.73e-11 3.85e-11 3.94e-11 4e-11 4.07e-11 4.13e-11 4.17e-11 4.2e-11 4.28e-11 4.34e-11 4.38e-11 4.42e-11 4.45e-11 4.47e-11 4.48e-11 4.47e-11 4.47e-11 4.46e-11 
01 01 00  03 01 03 8.02e-12 1.27e-11 1.57e-11 1.87e-11 2.01e-11 2.11e-11 2.17e-11 2.22e-11 2.25e-11 2.29e-11 2.31e-11 2.34e-11 2.36e-11 2.38e-11 2.4e-11 2.4e-11 2.4e-11 2.42e-11 2.41e-11 2.4e-11 2.41e-11 
01 01 00  03 01 02 3.58e-12 6.87e-12 9.65e-12 1.42e-11 1.78e-11 2.08e-11 2.33e-11 2.56e-11 2.78e-11 2.96e-11 3.12e-11 3.41e-11 3.67e-11 3.9e-11 4.1e-11 4.26e-11 4.41e-11 4.54e-11 4.66e-11 4.77e-11 4.86e-11 
01 01 00  04 01 04 1.57e-12 3.67e-12 5.48e-12 8.13e-12 1.01e-11 1.17e-11 1.31e-11 1.43e-11 1.54e-11 1.64e-11 1.72e-11 1.87e-11 1.98e-11 2.08e-11 2.15e-11 2.21e-11 2.26e-11 2.29e-11 2.32e-11 2.34e-11 2.35e-11 
01 01 00  04 01 03 1.44e-13 4.78e-13 9.22e-13 1.97e-12 3.1e-12 4.23e-12 5.31e-12 6.32e-12 7.25e-12 8.13e-12 8.93e-12 1.04e-11 1.16e-11 1.26e-11 1.35e-11 1.42e-11 1.49e-11 1.54e-11 1.59e-11 1.62e-11 1.65e-11 
01 01 00  05 01 05 3.54e-13 1.67e-12 3.66e-12 7.94e-12 1.16e-11 1.47e-11 1.71e-11 1.89e-11 2.06e-11 2.17e-11 2.29e-11 2.47e-11 2.6e-11 2.7e-11 2.78e-11 2.84e-11 2.89e-11 2.93e-11 2.96e-11 2.98e-11 2.99e-11 
01 01 00  05 01 04 4.82e-14 2.51e-13 5.83e-13 1.42e-12 2.34e-12 3.28e-12 4.22e-12 5.13e-12 6e-12 6.86e-12 7.68e-12 9.24e-12 1.07e-11 1.22e-11 1.36e-11 1.5e-11 1.63e-11 1.77e-11 1.9e-11 2.04e-11 2.17e-11 
01 01 00  06 01 06 1.16e-14 1.05e-13 3.15e-13 9.37e-13 1.61e-12 2.23e-12 2.78e-12 3.26e-12 3.7e-12 4.08e-12 4.44e-12 5.07e-12 5.6e-12 6.06e-12 6.47e-12 6.84e-12 7.18e-12 7.46e-12 7.69e-12 7.9e-12 8.1e-12 
01 01 00  06 01 05 1.57e-15 1.66e-14 5.5e-14 1.97e-13 4.13e-13 7.02e-13 1.05e-12 1.46e-12 1.92e-12 2.39e-12 2.88e-12 3.89e-12 4.89e-12 5.85e-12 6.73e-12 7.55e-12 8.3e-12 8.98e-12 9.62e-12 1.02e-11 1.07e-11 
01 01 00  07 01 07 1.65e-15 3.44e-14 1.57e-13 7.28e-13 1.6e-12 2.59e-12 3.6e-12 4.57e-12 5.48e-12 6.33e-12 7.13e-12 8.55e-12 9.79e-12 1.09e-11 1.19e-11 1.28e-11 1.36e-11 1.44e-11 1.51e-11 1.58e-11 1.64e-11 
01 01 00  07 01 06 1.25e-16 3.1e-15 1.57e-14 8.56e-14 2.19e-13 4.11e-13 6.54e-13 9.39e-13 1.26e-12 1.6e-12 1.96e-12 2.69e-12 3.44e-12 4.19e-12 4.95e-12 5.65e-12 6.39e-12 7.1e-12 7.77e-12 8.47e-12 9.14e-12 
01 01 00  08 01 08 5.9e-17 2.82e-15 1.92e-14 1.29e-13 3.26e-13 5.72e-13 8.32e-13 1.09e-12 1.33e-12 1.57e-12 1.81e-12 2.25e-12 2.63e-12 2.98e-12 3.29e-12 3.58e-12 3.84e-12 4.06e-12 4.25e-12 4.42e-12 4.55e-12 
01 01 00  08 01 07 1.62e-18 9.52e-17 7.15e-16 5.69e-15 1.87e-14 4.43e-14 8.76e-14 1.53e-13 2.42e-13 3.56e-13 4.93e-13 8.32e-13 1.24e-12 1.71e-12 2.21e-12 2.73e-12 3.29e-12 3.82e-12 4.39e-12 4.94e-12 5.5e-12 
01 01 00  09 01 09 1.99e-18 2.96e-16 3.64e-15 4.54e-14 1.64e-13 3.65e-13 6.24e-13 9.35e-13 1.27e-12 1.62e-12 2e-12 2.74e-12 3.47e-12 4.21e-12 4.92e-12 5.61e-12 6.29e-12 6.96e-12 7.62e-12 8.28e-12 8.96e-12 
01 01 00  09 01 08 5.67e-20 1.17e-17 1.77e-16 2.98e-15 1.36e-14 3.62e-14 7.31e-14 1.24e-13 1.9e-13 2.68e-13 3.57e-13 5.63e-13 7.94e-13 1.04e-12 1.3e-12 1.55e-12 1.81e-12 2.07e-12 2.32e-12 2.57e-12 2.81e-12 
01 01 00  10 01 10 4.78e-20 2.03e-17 4.26e-16 9.2e-15 4.38e-14 1.14e-13 2.17e-13 3.48e-13 5.02e-13 6.75e-13 8.6e-13 1.26e-12 1.7e-12 2.14e-12 2.59e-12 3.04e-12 3.49e-12 3.93e-12 4.34e-12 4.75e-12 5.11e-12 
01 01 00  10 01 09 3.8e-22 2.86e-19 8.34e-18 2.73e-16 1.76e-15 5.94e-15 1.44e-14 2.85e-14 4.98e-14 7.91e-14 1.18e-13 2.22e-13 3.67e-13 5.51e-13 7.73e-13 1.03e-12 1.32e-12 1.64e-12 2e-12 2.38e-12 2.79e-12 
01 01 00  11 01 11 1.95e-22 3.15e-19 1.31e-17 5.73e-16 3.98e-15 1.31e-14 2.97e-14 5.44e-14 8.65e-14 1.26e-13 1.72e-13 2.79e-13 4.02e-13 5.35e-13 6.75e-13 8.19e-13 9.65e-13 1.11e-12 1.25e-12 1.39e-12 1.52e-12 
01 01 00  11 01 10 2.23e-23 5.64e-20 3.03e-18 1.85e-16 1.63e-15 6.43e-15 1.69e-14 3.49e-14 6.16e-14 9.78e-14 1.43e-13 2.6e-13 4.12e-13 5.91e-13 7.95e-13 1.02e-12 1.26e-12 1.52e-12 1.79e-12 2.07e-12 2.36e-12 
01 01 00  12 01 12 4.39e-24 2.47e-20 1.93e-18 1.61e-16 1.56e-15 6.26e-15 1.62e-14 3.27e-14 5.63e-14 8.73e-14 1.25e-13 2.23e-13 3.49e-13 5.01e-13 6.8e-13 8.86e-13 1.12e-12 1.37e-12 1.66e-12 1.96e-12 2.28e-12 
01 01 00  12 01 11 1e-25 1.18e-21 1.35e-19 1.73e-17 2.14e-16 1.04e-15 3.12e-15 7.12e-15 1.37e-14 2.32e-14 3.64e-14 7.5e-14 1.33e-13 2.1e-13 3.1e-13 4.32e-13 5.77e-13 7.43e-13 9.33e-13 1.14e-12 1.37e-12 
01 01 00  03 03 01 4.69e-17 1.51e-15 8.05e-15 4.07e-14 9.07e-14 1.49e-13 2.1e-13 2.73e-13 3.37e-13 4e-13 4.64e-13 5.9e-13 7.14e-13 8.35e-13 9.5e-13 1.06e-12 1.17e-12 1.27e-12 1.37e-12 1.46e-12 1.54e-12 
01 01 00  03 03 00 1.11e-16 4.28e-15 2.64e-14 1.67e-13 4.33e-13 7.94e-13 1.22e-12 1.69e-12 2.17e-12 2.68e-12 3.19e-12 4.19e-12 5.16e-12 6.1e-12 7e-12 7.85e-12 8.68e-12 9.47e-12 1.02e-11 1.09e-11 1.17e-11 
01 01 00  04 03 02 1.53e-17 9.24e-16 7.09e-15 5.34e-14 1.47e-13 2.68e-13 4.03e-13 5.39e-13 6.81e-13 8.18e-13 9.49e-13 1.22e-12 1.48e-12 1.72e-12 1.97e-12 2.23e-12 2.47e-12 2.72e-12 2.96e-12 3.2e-12 3.45e-12 
01 01 00  04 03 01 2.77e-17 1.7e-15 1.32e-14 1.03e-13 2.87e-13 5.38e-13 8.21e-13 1.13e-12 1.44e-12 1.75e-12 2.05e-12 2.66e-12 3.22e-12 3.75e-12 4.26e-12 4.71e-12 5.15e-12 5.56e-12 5.94e-12 6.3e-12 6.63e-12 
01 01 00  05 03 03 1.15e-18 1.23e-16 1.23e-15 1.2e-14 3.73e-14 7.41e-14 1.18e-13 1.67e-13 2.19e-13 2.73e-13 3.29e-13 4.45e-13 5.71e-13 7.08e-13 8.55e-13 1.02e-12 1.19e-12 1.38e-12 1.58e-12 1.79e-12 2.02e-12 
01 01 00  05 03 02 4.43e-18 5.08e-16 5.4e-15 5.73e-14 1.89e-13 3.88e-13 6.36e-13 9.07e-13 1.2e-12 1.5e-12 1.8e-12 2.39e-12 2.97e-12 3.49e-12 4.01e-12 4.48e-12 4.92e-12 5.33e-12 5.73e-12 6.09e-12 6.46e-12 
01 01 00  06 03 04 4.31e-19 9.9e-17 1.5e-15 2.27e-14 8.9e-14 2e-13 3.46e-13 5.08e-13 6.8e-13 8.48e-13 1.01e-12 1.32e-12 1.59e-12 1.82e-12 2.02e-12 2.2e-12 2.36e-12 2.52e-12 2.68e-12 2.8e-12 2.93e-12 
01 01 00  06 03 03 3.82e-19 9.36e-17 1.5e-15 2.53e-14 1.08e-13 2.62e-13 4.82e-13 7.45e-13 1.04e-12 1.36e-12 1.68e-12 2.32e-12 2.94e-12 3.53e-12 4.08e-12 4.6e-12 5.08e-12 5.56e-12 6e-12 6.44e-12 6.87e-12 
01 01 00  07 03 05 3.79e-20 1.91e-17 4.2e-16 9.15e-15 4.18e-14 1.03e-13 1.84e-13 2.79e-13 3.78e-13 4.78e-13 5.75e-13 7.59e-13 9.26e-13 1.08e-12 1.22e-12 1.35e-12 1.47e-12 1.58e-12 1.69e-12 1.8e-12 1.9e-12 
01 01 00  07 03 04 1.66e-20 8.93e-18 2.13e-16 5.23e-15 2.66e-14 7.13e-14 1.39e-13 2.24e-13 3.23e-13 4.32e-13 5.48e-13 7.89e-13 1.04e-12 1.28e-12 1.51e-12 1.74e-12 1.95e-12 2.16e-12 2.35e-12 2.53e-12 2.69e-12 
01 01 00  08 03 06 3.05e-21 4.09e-18 1.51e-16 5.63e-15 3.47e-14 1.03e-13 2.14e-13 3.6e-13 5.3e-13 7.16e-13 9.18e-13 1.32e-12 1.7e-12 2.05e-12 2.38e-12 2.69e-12 2.94e-12 3.2e-12 3.4e-12 3.58e-12 3.75e-12 
01 01 00  08 03 05 4.91e-22 6.67e-19 2.52e-17 9.97e-16 6.48e-15 2.05e-14 4.47e-14 7.93e-14 1.23e-13 1.75e-13 2.34e-13 3.66e-13 5.13e-13 6.71e-13 8.34e-13 1e-12 1.17e-12 1.34e-12 1.51e-12 1.69e-12 1.85e-12 
01 01 00  09 03 07 8.75e-23 3.47e-19 2.23e-17 1.49e-15 1.24e-14 4.45e-14 1.05e-13 1.95e-13 3.09e-13 4.44e-13 5.9e-13 9.07e-13 1.23e-12 1.56e-12 1.87e-12 2.15e-12 2.42e-12 2.68e-12 2.93e-12 3.16e-12 3.35e-12 
01 01 00  09 03 06 2.66e-23 9.96e-20 6.1e-18 3.71e-16 2.92e-15 1e-14 2.29e-14 4.17e-14 6.55e-14 9.36e-14 1.25e-13 1.96e-13 2.75e-13 3.61e-13 4.51e-13 5.45e-13 6.42e-13 7.46e-13 8.52e-13 9.59e-13 1.07e-12 
01 01 00  10 03 08 2.11e-24 2.89e-20 3.48e-18 4.4e-16 5.17e-15 2.33e-14 6.47e-14 1.34e-13 2.35e-13 3.66e-13 5.17e-13 8.82e-13 1.3e-12 1.73e-12 2.17e-12 2.59e-12 3e-12 3.36e-12 3.73e-12 4.05e-12 4.36e-12 
01 01 00  10 03 07 7.03e-25 8.9e-21 9.92e-19 1.09e-16 1.14e-15 4.65e-15 1.19e-14 2.35e-14 3.94e-14 5.92e-14 8.32e-14 1.43e-13 2.16e-13 3.05e-13 4.07e-13 5.24e-13 6.58e-13 8.04e-13 9.65e-13 1.14e-12 1.32e-12 
02 01 02  01 01 01 4.91e-11 4.6e-11 4.36e-11 4.04e-11 3.85e-11 3.72e-11 3.62e-11 3.55e-11 3.5e-11 3.45e-11 3.41e-11 3.35e-11 3.31e-11 3.27e-11 3.25e-11 3.22e-11 3.2e-11 3.18e-11 3.16e-11 3.15e-11 3.13e-11 
02 01 02  01 01 00 3.16e-11 3.03e-11 2.96e-11 2.92e-11 2.91e-11 2.91e-11 2.92e-11 2.92e-11 2.91e-11 2.9e-11 2.89e-11 2.87e-11 2.84e-11 2.81e-11 2.78e-11 2.75e-11 2.72e-11 2.7e-11 2.68e-11 2.66e-11 2.65e-11 
02 01 02  02 01 02 0 0 0 0 0 0 0 0 0 0 0 0 0 0 0 0 0 0 0 0 0 
02 01 02  02 01 01 4.45e-11 3.87e-11 3.4e-11 2.81e-11 2.49e-11 2.29e-11 2.16e-11 2.08e-11 2.01e-11 1.98e-11 1.94e-11 1.9e-11 1.87e-11 1.86e-11 1.85e-11 1.84e-11 1.83e-11 1.84e-11 1.83e-11 1.82e-11 1.82e-11 
02 01 02  03 01 03 2.51e-11 3.49e-11 4.1e-11 4.81e-11 5.21e-11 5.45e-11 5.62e-11 5.73e-11 5.82e-11 5.88e-11 5.92e-11 5.98e-11 6.02e-11 6.04e-11 6.05e-11 6.04e-11 6.04e-11 6.03e-11 6e-11 5.97e-11 5.94e-11 
02 01 02  03 01 02 5.27e-12 7.8e-12 9.68e-12 1.26e-11 1.48e-11 1.68e-11 1.85e-11 2.01e-11 2.16e-11 2.29e-11 2.42e-11 2.64e-11 2.85e-11 3.02e-11 3.19e-11 3.33e-11 3.44e-11 3.55e-11 3.64e-11 3.72e-11 3.79e-11 
02 01 02  04 01 04 2.89e-12 5.51e-12 7.62e-12 1.1e-11 1.38e-11 1.6e-11 1.81e-11 1.99e-11 2.16e-11 2.3e-11 2.43e-11 2.65e-11 2.81e-11 2.97e-11 3.08e-11 3.18e-11 3.25e-11 3.33e-11 3.37e-11 3.41e-11 3.44e-11 
02 01 02  04 01 03 4.73e-13 1.18e-12 1.9e-12 3.18e-12 4.25e-12 5.18e-12 6.04e-12 6.82e-12 7.56e-12 8.24e-12 8.9e-12 1.01e-11 1.11e-11 1.2e-11 1.27e-11 1.34e-11 1.4e-11 1.44e-11 1.48e-11 1.51e-11 1.54e-11 
02 01 02  05 01 05 3.38e-13 1.25e-12 2.42e-12 4.79e-12 6.94e-12 8.86e-12 1.06e-11 1.2e-11 1.34e-11 1.46e-11 1.55e-11 1.73e-11 1.88e-11 1.98e-11 2.09e-11 2.16e-11 2.23e-11 2.28e-11 2.33e-11 2.36e-11 2.4e-11 
02 01 02  05 01 04 1.07e-13 4.55e-13 9.43e-13 2.01e-12 3.05e-12 4.02e-12 4.93e-12 5.8e-12 6.61e-12 7.41e-12 8.15e-12 9.57e-12 1.09e-11 1.22e-11 1.34e-11 1.47e-11 1.58e-11 1.7e-11 1.81e-11 1.92e-11 2.03e-11 
02 01 02  06 01 06 2.94e-14 2.09e-13 5.49e-13 1.44e-12 2.36e-12 3.22e-12 4.01e-12 4.73e-12 5.4e-12 6.02e-12 6.61e-12 7.69e-12 8.67e-12 9.57e-12 1.04e-11 1.12e-11 1.19e-11 1.25e-11 1.32e-11 1.37e-11 1.43e-11 
02 01 02  06 01 05 3.32e-15 3.03e-14 9.49e-14 3.2e-13 6.29e-13 9.86e-13 1.38e-12 1.8e-12 2.23e-12 2.68e-12 3.13e-12 4.02e-12 4.88e-12 5.71e-12 6.48e-12 7.21e-12 7.87e-12 8.46e-12 9.01e-12 9.5e-12 9.92e-12 
02 01 02  07 01 07 4.69e-15 7.71e-14 3.1e-13 1.24e-12 2.47e-12 3.75e-12 4.96e-12 6.09e-12 7.13e-12 8.09e-12 8.99e-12 1.06e-11 1.2e-11 1.32e-11 1.43e-11 1.53e-11 1.62e-11 1.7e-11 1.77e-11 1.84e-11 1.89e-11 
02 01 02  07 01 06 2.58e-16 5.34e-15 2.52e-14 1.28e-13 3.12e-13 5.55e-13 8.43e-13 1.16e-12 1.5e-12 1.85e-12 2.2e-12 2.91e-12 3.62e-12 4.32e-12 5.01e-12 5.71e-12 6.41e-12 7.11e-12 7.82e-12 8.54e-12 9.26e-12 
02 01 02  08 01 08 8.61e-17 3.46e-15 2.22e-14 1.46e-13 3.79e-13 6.8e-13 1.02e-12 1.36e-12 1.7e-12 2.04e-12 2.36e-12 2.98e-12 3.56e-12 4.08e-12 4.56e-12 5e-12 5.41e-12 5.79e-12 6.13e-12 6.46e-12 6.75e-12 
02 01 02  08 01 07 3.06e-18 1.63e-16 1.22e-15 1.03e-14 3.38e-14 7.68e-14 1.42e-13 2.3e-13 3.43e-13 4.78e-13 6.34e-13 1e-12 1.43e-12 1.91e-12 2.43e-12 2.97e-12 3.53e-12 4.13e-12 4.72e-12 5.32e-12 5.93e-12 
02 01 02  09 01 09 1.81e-18 2.34e-16 2.76e-15 3.42e-14 1.26e-13 2.83e-13 4.89e-13 7.36e-13 1.01e-12 1.29e-12 1.59e-12 2.2e-12 2.83e-12 3.46e-12 4.08e-12 4.69e-12 5.3e-12 5.89e-12 6.49e-12 7.07e-12 7.65e-12 
02 01 02  09 01 08 1.61e-19 2.6e-17 3.46e-16 5.14e-15 2.2e-14 5.67e-14 1.11e-13 1.86e-13 2.8e-13 3.9e-13 5.13e-13 7.89e-13 1.09e-12 1.4e-12 1.71e-12 2.02e-12 2.32e-12 2.6e-12 2.88e-12 3.13e-12 3.38e-12 
02 01 02  10 01 10 7.79e-20 2.6e-17 4.75e-16 8.81e-15 3.88e-14 9.65e-14 1.8e-13 2.86e-13 4.11e-13 5.5e-13 7e-13 1.03e-12 1.38e-12 1.74e-12 2.09e-12 2.46e-12 2.82e-12 3.17e-12 3.53e-12 3.86e-12 4.21e-12 
02 01 02  10 01 09 9.67e-22 5.76e-19 1.48e-17 4.34e-16 2.67e-15 8.76e-15 2.07e-14 4.01e-14 6.81e-14 1.06e-13 1.52e-13 2.73e-13 4.31e-13 6.18e-13 8.35e-13 1.07e-12 1.33e-12 1.61e-12 1.91e-12 2.23e-12 2.56e-12 
02 01 02  11 01 11 7.59e-22 9.15e-19 3.21e-17 1.15e-15 7.17e-15 2.22e-14 4.82e-14 8.58e-14 1.34e-13 1.93e-13 2.59e-13 4.15e-13 5.93e-13 7.91e-13 1e-12 1.23e-12 1.47e-12 1.73e-12 1.99e-12 2.26e-12 2.56e-12 
02 01 02  11 01 10 4.66e-23 9.34e-20 4.41e-18 2.34e-16 1.9e-15 7.2e-15 1.83e-14 3.69e-14 6.4e-14 9.96e-14 1.44e-13 2.56e-13 3.94e-13 5.53e-13 7.25e-13 9.12e-13 1.1e-12 1.3e-12 1.51e-12 1.71e-12 1.92e-12 
02 01 02  12 01 12 1.4e-23 6.3e-20 4.36e-18 3.18e-16 2.81e-15 1.06e-14 2.65e-14 5.18e-14 8.76e-14 1.34e-13 1.92e-13 3.45e-13 5.47e-13 7.99e-13 1.1e-12 1.45e-12 1.85e-12 2.3e-12 2.77e-12 3.3e-12 3.87e-12 
02 01 02  12 01 11 2.41e-25 2.19e-21 2.18e-19 2.39e-17 2.75e-16 1.29e-15 3.82e-15 8.67e-15 1.66e-14 2.84e-14 4.44e-14 9.11e-14 1.6e-13 2.51e-13 3.65e-13 5.03e-13 6.64e-13 8.47e-13 1.05e-12 1.28e-12 1.52e-12 
02 01 02  03 03 01 9.85e-17 2.86e-15 1.52e-14 8.19e-14 1.95e-13 3.37e-13 4.91e-13 6.52e-13 8.13e-13 9.76e-13 1.13e-12 1.43e-12 1.72e-12 2e-12 2.25e-12 2.48e-12 2.71e-12 2.93e-12 3.12e-12 3.32e-12 3.5e-12 
02 01 02  03 03 00 7.97e-17 2.68e-15 1.58e-14 9.62e-14 2.46e-13 4.44e-13 6.71e-13 9.18e-13 1.17e-12 1.43e-12 1.7e-12 2.23e-12 2.77e-12 3.3e-12 3.82e-12 4.33e-12 4.84e-12 5.34e-12 5.84e-12 6.33e-12 6.82e-12 
02 01 02  04 03 02 6.2e-17 3.01e-15 2.08e-14 1.45e-13 3.87e-13 7.14e-13 1.09e-12 1.5e-12 1.92e-12 2.35e-12 2.76e-12 3.59e-12 4.38e-12 5.12e-12 5.82e-12 6.48e-12 7.11e-12 7.71e-12 8.28e-12 8.84e-12 9.36e-12 
02 01 02  04 03 01 5.13e-18 2.54e-16 1.78e-15 1.26e-14 3.44e-14 6.43e-14 9.93e-14 1.37e-13 1.78e-13 2.2e-13 2.64e-13 3.55e-13 4.53e-13 5.56e-13 6.66e-13 7.83e-13 9.05e-13 1.03e-12 1.17e-12 1.31e-12 1.45e-12 
02 01 02  05 03 03 1.01e-17 9.35e-16 9.01e-15 8.72e-14 2.75e-13 5.52e-13 8.86e-13 1.26e-12 1.63e-12 2.02e-12 2.4e-12 3.15e-12 3.85e-12 4.52e-12 5.14e-12 5.73e-12 6.28e-12 6.81e-12 7.3e-12 7.78e-12 8.24e-12 
02 01 02  05 03 02 1.27e-18 1.14e-16 1.06e-15 9.81e-15 2.98e-14 5.82e-14 9.16e-14 1.27e-13 1.62e-13 1.97e-13 2.32e-13 2.98e-13 3.6e-13 4.2e-13 4.77e-13 5.31e-13 5.84e-13 6.35e-13 6.85e-13 7.34e-13 7.8e-13 
02 01 02  06 03 04 1.35e-18 2.57e-16 3.64e-15 5.35e-14 2.12e-13 4.9e-13 8.69e-13 1.32e-12 1.81e-12 2.31e-12 2.82e-12 3.82e-12 4.73e-12 5.55e-12 6.28e-12 6.92e-12 7.49e-12 7.97e-12 8.41e-12 8.8e-12 9.14e-12 
02 01 02  06 03 03 3.13e-19 5.78e-17 7.81e-16 1.06e-14 3.95e-14 8.75e-14 1.5e-13 2.21e-13 2.97e-13 3.75e-13 4.52e-13 6e-13 7.35e-13 8.57e-13 9.66e-13 1.06e-12 1.15e-12 1.23e-12 1.31e-12 1.38e-12 1.44e-12 
02 01 02  07 03 05 6.89e-20 2.95e-17 6.18e-16 1.34e-14 6.32e-14 1.62e-13 3.02e-13 4.75e-13 6.7e-13 8.82e-13 1.1e-12 1.54e-12 1.98e-12 2.4e-12 2.8e-12 3.18e-12 3.53e-12 3.87e-12 4.17e-12 4.45e-12 4.71e-12 
02 01 02  07 03 04 3.42e-20 1.41e-17 2.86e-16 5.72e-15 2.52e-14 6.1e-14 1.09e-13 1.65e-13 2.26e-13 2.88e-13 3.5e-13 4.72e-13 5.88e-13 6.99e-13 8.01e-13 8.98e-13 9.88e-13 1.07e-12 1.15e-12 1.22e-12 1.29e-12 
02 01 02  08 03 06 3.94e-21 4.27e-18 1.43e-16 4.95e-15 2.99e-14 8.89e-14 1.86e-13 3.17e-13 4.73e-13 6.5e-13 8.38e-13 1.23e-12 1.62e-12 2.01e-12 2.37e-12 2.71e-12 3.04e-12 3.35e-12 3.62e-12 3.89e-12 4.15e-12 
02 01 02  08 03 05 1.7e-21 1.85e-18 6.21e-17 2.12e-15 1.26e-14 3.69e-14 7.61e-14 1.28e-13 1.91e-13 2.61e-13 3.37e-13 4.99e-13 6.66e-13 8.31e-13 9.93e-13 1.15e-12 1.29e-12 1.43e-12 1.56e-12 1.67e-12 1.77e-12 
02 01 02  09 03 07 1.51e-22 4.58e-19 2.51e-17 1.38e-15 1.02e-14 3.38e-14 7.56e-14 1.33e-13 2.07e-13 2.89e-13 3.81e-13 5.75e-13 7.86e-13 9.92e-13 1.21e-12 1.42e-12 1.65e-12 1.86e-12 2.09e-12 2.31e-12 2.53e-12 
02 01 02  09 03 06 4.59e-23 1.46e-19 8.46e-18 5.13e-16 4.12e-15 1.46e-14 3.4e-14 6.28e-14 9.97e-14 1.43e-13 1.92e-13 3.01e-13 4.2e-13 5.43e-13 6.7e-13 8e-13 9.33e-13 1.07e-12 1.2e-12 1.34e-12 1.48e-12 
02 01 02  10 03 08 5.53e-24 5.77e-20 5.93e-18 6.14e-16 6.31e-15 2.56e-14 6.56e-14 1.29e-13 2.15e-13 3.22e-13 4.45e-13 7.31e-13 1.05e-12 1.39e-12 1.74e-12 2.09e-12 2.45e-12 2.8e-12 3.15e-12 3.49e-12 3.83e-12 
02 01 02  10 03 07 7.72e-25 8.26e-21 8.63e-19 9.34e-17 1.01e-15 4.28e-15 1.15e-14 2.36e-14 4.11e-14 6.36e-14 9.15e-14 1.6e-13 2.46e-13 3.45e-13 4.57e-13 5.79e-13 7.13e-13 8.55e-13 1.01e-12 1.16e-12 1.33e-12 
02 01 01  01 01 01 2.69e-11 2.53e-11 2.45e-11 2.4e-11 2.41e-11 2.46e-11 2.53e-11 2.59e-11 2.67e-11 2.74e-11 2.8e-11 2.93e-11 3.05e-11 3.15e-11 3.24e-11 3.32e-11 3.38e-11 3.44e-11 3.48e-11 3.52e-11 3.54e-11 
02 01 01  01 01 00 3.47e-11 3.19e-11 3.02e-11 2.85e-11 2.77e-11 2.73e-11 2.71e-11 2.71e-11 2.71e-11 2.71e-11 2.71e-11 2.73e-11 2.74e-11 2.75e-11 2.76e-11 2.77e-11 2.77e-11 2.77e-11 2.76e-11 2.75e-11 2.74e-11 
02 01 01  02 01 02 4.77e-11 4.05e-11 3.52e-11 2.88e-11 2.53e-11 2.32e-11 2.19e-11 2.1e-11 2.03e-11 1.99e-11 1.95e-11 1.91e-11 1.88e-11 1.87e-11 1.86e-11 1.85e-11 1.84e-11 1.84e-11 1.83e-11 1.82e-11 1.82e-11 
02 01 01  02 01 01 0 0 0 0 0 0 0 0 0 0 0 0 0 0 0 0 0 0 0 0 0 
02 01 01  03 01 03 1.47e-11 1.89e-11 2.09e-11 2.3e-11 2.41e-11 2.5e-11 2.58e-11 2.64e-11 2.69e-11 2.73e-11 2.76e-11 2.82e-11 2.87e-11 2.89e-11 2.92e-11 2.94e-11 2.95e-11 2.96e-11 2.97e-11 2.96e-11 2.97e-11 
02 01 01  03 01 02 2.07e-11 2.88e-11 3.35e-11 3.82e-11 4.05e-11 4.18e-11 4.28e-11 4.35e-11 4.4e-11 4.46e-11 4.5e-11 4.57e-11 4.63e-11 4.67e-11 4.72e-11 4.75e-11 4.77e-11 4.79e-11 4.79e-11 4.79e-11 4.79e-11 
02 01 01  04 01 04 3.74e-12 7.21e-12 9.94e-12 1.36e-11 1.59e-11 1.76e-11 1.88e-11 1.98e-11 2.07e-11 2.13e-11 2.19e-11 2.28e-11 2.35e-11 2.4e-11 2.44e-11 2.47e-11 2.51e-11 2.54e-11 2.55e-11 2.57e-11 2.59e-11 
02 01 01  04 01 03 1.43e-12 3.5e-12 5.59e-12 9.38e-12 1.26e-11 1.55e-11 1.81e-11 2.05e-11 2.26e-11 2.45e-11 2.63e-11 2.94e-11 3.22e-11 3.46e-11 3.66e-11 3.86e-11 4.01e-11 4.16e-11 4.3e-11 4.42e-11 4.53e-11 
02 01 01  05 01 05 3.02e-13 1.08e-12 2.02e-12 3.79e-12 5.26e-12 6.48e-12 7.51e-12 8.39e-12 9.16e-12 9.85e-12 1.04e-11 1.15e-11 1.23e-11 1.3e-11 1.37e-11 1.41e-11 1.46e-11 1.5e-11 1.53e-11 1.55e-11 1.57e-11 
02 01 01  05 01 04 1.41e-13 5.85e-13 1.21e-12 2.57e-12 3.86e-12 5.03e-12 6.08e-12 7.02e-12 7.89e-12 8.67e-12 9.39e-12 1.07e-11 1.18e-11 1.27e-11 1.36e-11 1.44e-11 1.5e-11 1.56e-11 1.61e-11 1.65e-11 1.69e-11 
02 01 01  06 01 06 7.51e-14 5.38e-13 1.45e-12 3.93e-12 6.42e-12 8.67e-12 1.06e-11 1.22e-11 1.37e-11 1.49e-11 1.6e-11 1.78e-11 1.93e-11 2.05e-11 2.14e-11 2.23e-11 2.29e-11 2.35e-11 2.39e-11 2.43e-11 2.47e-11 
02 01 01  06 01 05 1.21e-14 1.03e-13 3.08e-13 9.48e-13 1.72e-12 2.53e-12 3.33e-12 4.11e-12 4.87e-12 5.61e-12 6.33e-12 7.7e-12 9.01e-12 1.02e-11 1.14e-11 1.25e-11 1.36e-11 1.46e-11 1.55e-11 1.64e-11 1.72e-11 
02 01 01  07 01 07 2.37e-15 3.77e-14 1.48e-13 5.72e-13 1.12e-12 1.66e-12 2.18e-12 2.64e-12 3.05e-12 3.43e-12 3.77e-12 4.34e-12 4.82e-12 5.23e-12 5.56e-12 5.84e-12 6.09e-12 6.28e-12 6.46e-12 6.58e-12 6.67e-12 
02 01 01  07 01 06 3.04e-16 5.97e-15 2.71e-14 1.34e-13 3.27e-13 5.92e-13 9.27e-13 1.31e-12 1.72e-12 2.16e-12 2.6e-12 3.52e-12 4.43e-12 5.29e-12 6.11e-12 6.88e-12 7.6e-12 8.28e-12 8.93e-12 9.5e-12 1.01e-11 
02 01 01  08 01 08 1.84e-16 7.31e-15 4.63e-14 3e-13 7.73e-13 1.38e-12 2.04e-12 2.71e-12 3.36e-12 4e-12 4.6e-12 5.74e-12 6.78e-12 7.77e-12 8.71e-12 9.61e-12 1.05e-11 1.14e-11 1.23e-11 1.32e-11 1.4e-11 
02 01 01  08 01 07 1.22e-17 6.31e-16 4.63e-15 3.66e-14 1.12e-13 2.3e-13 3.88e-13 5.77e-13 7.9e-13 1.03e-12 1.28e-12 1.81e-12 2.38e-12 2.97e-12 3.6e-12 4.22e-12 4.87e-12 5.53e-12 6.21e-12 6.89e-12 7.61e-12 
02 01 01  09 01 09 4.4e-18 4.96e-16 5.29e-15 5.73e-14 1.93e-13 4.02e-13 6.65e-13 9.55e-13 1.26e-12 1.58e-12 1.89e-12 2.48e-12 3.03e-12 3.54e-12 3.99e-12 4.39e-12 4.76e-12 5.06e-12 5.36e-12 5.62e-12 5.84e-12 
02 01 01  09 01 08 9.76e-20 1.6e-17 2.11e-16 3.15e-15 1.42e-14 3.86e-14 8.14e-14 1.44e-13 2.28e-13 3.33e-13 4.55e-13 7.46e-13 1.09e-12 1.46e-12 1.85e-12 2.24e-12 2.67e-12 3.07e-12 3.5e-12 3.91e-12 4.33e-12 
02 01 01  10 01 10 9.36e-20 3.1e-17 5.71e-16 1.07e-14 4.76e-14 1.19e-13 2.22e-13 3.52e-13 5e-13 6.67e-13 8.47e-13 1.22e-12 1.6e-12 2e-12 2.4e-12 2.78e-12 3.17e-12 3.56e-12 3.94e-12 4.32e-12 4.69e-12 
02 01 01  10 01 09 3.6e-21 2.08e-18 5.28e-17 1.47e-15 8.46e-15 2.56e-14 5.55e-14 9.92e-14 1.56e-13 2.25e-13 3.05e-13 4.89e-13 6.98e-13 9.2e-13 1.15e-12 1.38e-12 1.61e-12 1.84e-12 2.06e-12 2.28e-12 2.49e-12 
02 01 01  11 01 11 1.42e-21 1.69e-18 5.95e-17 2.16e-15 1.34e-14 4.11e-14 8.86e-14 1.56e-13 2.43e-13 3.48e-13 4.7e-13 7.62e-13 1.11e-12 1.5e-12 1.95e-12 2.42e-12 2.93e-12 3.48e-12 4.05e-12 4.64e-12 5.26e-12 
02 01 01  11 01 10 2.65e-23 5.14e-20 2.38e-18 1.24e-16 1.02e-15 4.04e-15 1.09e-14 2.34e-14 4.31e-14 7.13e-14 1.09e-13 2.16e-13 3.67e-13 5.63e-13 8.02e-13 1.08e-12 1.4e-12 1.76e-12 2.15e-12 2.59e-12 3.04e-12 
02 01 01  12 01 12 4.63e-24 2.03e-20 1.38e-18 9.67e-17 8.35e-16 3.11e-15 7.63e-15 1.49e-14 2.49e-14 3.8e-14 5.43e-14 9.62e-14 1.51e-13 2.18e-13 2.96e-13 3.86e-13 4.87e-13 5.97e-13 7.15e-13 8.44e-13 9.78e-13 
02 01 01  12 01 11 8.29e-25 7.31e-21 7.06e-19 7.34e-17 8.1e-16 3.6e-15 1.02e-14 2.18e-14 4e-14 6.52e-14 9.77e-14 1.86e-13 3.04e-13 4.53e-13 6.29e-13 8.32e-13 1.06e-12 1.31e-12 1.58e-12 1.87e-12 2.19e-12 
02 01 01  03 03 01 1.16e-16 3.67e-15 2.06e-14 1.18e-13 2.94e-13 5.21e-13 7.79e-13 1.06e-12 1.35e-12 1.65e-12 1.94e-12 2.53e-12 3.11e-12 3.66e-12 4.2e-12 4.72e-12 5.23e-12 5.71e-12 6.19e-12 6.64e-12 7.09e-12 
02 01 01  03 03 00 1.13e-16 3.43e-15 1.9e-14 1.07e-13 2.6e-13 4.48e-13 6.52e-13 8.57e-13 1.06e-12 1.26e-12 1.45e-12 1.82e-12 2.17e-12 2.48e-12 2.78e-12 3.05e-12 3.3e-12 3.53e-12 3.76e-12 3.96e-12 4.15e-12 
02 01 01  04 03 02 2.05e-17 9.98e-16 7.03e-15 4.95e-14 1.34e-13 2.46e-13 3.73e-13 5.11e-13 6.48e-13 7.88e-13 9.26e-13 1.19e-12 1.44e-12 1.68e-12 1.89e-12 2.1e-12 2.3e-12 2.49e-12 2.68e-12 2.85e-12 3.03e-12 
02 01 01  04 03 01 5.83e-17 2.88e-15 2.04e-14 1.46e-13 3.98e-13 7.39e-13 1.14e-12 1.56e-12 2e-12 2.45e-12 2.89e-12 3.74e-12 4.55e-12 5.31e-12 6.02e-12 6.68e-12 7.32e-12 7.89e-12 8.44e-12 8.96e-12 9.45e-12 
02 01 01  05 03 03 2.62e-18 2.3e-16 2.11e-15 1.92e-14 5.78e-14 1.13e-13 1.77e-13 2.45e-13 3.14e-13 3.83e-13 4.5e-13 5.76e-13 6.92e-13 7.98e-13 8.95e-13 9.83e-13 1.06e-12 1.14e-12 1.21e-12 1.27e-12 1.33e-12 
02 01 01  05 03 02 7.17e-18 6.35e-16 5.93e-15 5.61e-14 1.75e-13 3.52e-13 5.67e-13 8.03e-13 1.05e-12 1.29e-12 1.54e-12 2.03e-12 2.49e-12 2.94e-12 3.35e-12 3.76e-12 4.14e-12 4.5e-12 4.85e-12 5.19e-12 5.51e-12 
02 01 01  06 03 04 3.91e-19 7.09e-17 9.47e-16 1.27e-14 4.69e-14 1.03e-13 1.75e-13 2.55e-13 3.39e-13 4.22e-13 5.03e-13 6.53e-13 7.86e-13 9.02e-13 1e-12 1.1e-12 1.18e-12 1.26e-12 1.33e-12 1.4e-12 1.47e-12 
02 01 01  06 03 03 1.21e-18 2.21e-16 3e-15 4.14e-14 1.56e-13 3.51e-13 6.08e-13 9.05e-13 1.22e-12 1.55e-12 1.88e-12 2.51e-12 3.09e-12 3.61e-12 4.07e-12 4.49e-12 4.86e-12 5.18e-12 5.48e-12 5.75e-12 6e-12 
02 01 01  07 03 05 6.98e-20 2.8e-17 5.53e-16 1.08e-14 4.72e-14 1.13e-13 2e-13 3e-13 4.02e-13 5.08e-13 6.07e-13 8.02e-13 9.7e-13 1.13e-12 1.28e-12 1.42e-12 1.55e-12 1.68e-12 1.79e-12 1.92e-12 2.03e-12 
02 01 01  07 03 04 7.42e-20 3.02e-17 6.09e-16 1.23e-14 5.52e-14 1.37e-13 2.5e-13 3.87e-13 5.39e-13 7.01e-13 8.72e-13 1.22e-12 1.57e-12 1.91e-12 2.26e-12 2.59e-12 2.92e-12 3.24e-12 3.56e-12 3.86e-12 4.17e-12 
02 01 01  08 03 06 3.74e-21 3.88e-18 1.25e-16 4.08e-15 2.35e-14 6.74e-14 1.36e-13 2.26e-13 3.28e-13 4.42e-13 5.58e-13 7.97e-13 1.02e-12 1.23e-12 1.43e-12 1.6e-12 1.76e-12 1.91e-12 2.02e-12 2.14e-12 2.24e-12 
02 01 01  08 03 05 3.69e-21 3.94e-18 1.31e-16 4.43e-15 2.62e-14 7.67e-14 1.57e-13 2.64e-13 3.88e-13 5.26e-13 6.76e-13 9.81e-13 1.3e-12 1.6e-12 1.89e-12 2.17e-12 2.44e-12 2.69e-12 2.93e-12 3.16e-12 3.35e-12 
02 01 01  09 03 07 1.71e-22 5.29e-19 3.01e-17 1.75e-15 1.36e-14 4.69e-14 1.07e-13 1.94e-13 3.04e-13 4.27e-13 5.65e-13 8.54e-13 1.15e-12 1.44e-12 1.72e-12 1.99e-12 2.23e-12 2.45e-12 2.68e-12 2.88e-12 3.07e-12 
02 01 01  09 03 06 8.55e-23 2.63e-19 1.49e-17 8.8e-16 6.94e-15 2.44e-14 5.68e-14 1.05e-13 1.67e-13 2.41e-13 3.25e-13 5.17e-13 7.36e-13 9.71e-13 1.23e-12 1.49e-12 1.78e-12 2.08e-12 2.38e-12 2.7e-12 3.03e-12 
02 01 01  10 03 08 3.51e-24 3.72e-20 3.92e-18 4.29e-16 4.66e-15 1.98e-14 5.31e-14 1.08e-13 1.86e-13 2.85e-13 4e-13 6.72e-13 9.8e-13 1.31e-12 1.63e-12 1.95e-12 2.24e-12 2.53e-12 2.81e-12 3.06e-12 3.3e-12 
02 01 01  10 03 07 2.35e-24 2.41e-20 2.45e-18 2.54e-16 2.64e-15 1.09e-14 2.85e-14 5.7e-14 9.62e-14 1.45e-13 2.03e-13 3.38e-13 4.91e-13 6.56e-13 8.31e-13 1.01e-12 1.2e-12 1.39e-12 1.59e-12 1.77e-12 1.98e-12 
03 01 03  01 01 01 1.65e-11 1.57e-11 1.53e-11 1.52e-11 1.55e-11 1.58e-11 1.62e-11 1.66e-11 1.7e-11 1.72e-11 1.75e-11 1.79e-11 1.82e-11 1.84e-11 1.86e-11 1.87e-11 1.87e-11 1.88e-11 1.88e-11 1.88e-11 1.88e-11 
03 01 03  01 01 00 1.82e-11 1.66e-11 1.55e-11 1.4e-11 1.31e-11 1.26e-11 1.23e-11 1.21e-11 1.19e-11 1.18e-11 1.17e-11 1.15e-11 1.14e-11 1.13e-11 1.13e-11 1.12e-11 1.11e-11 1.11e-11 1.1e-11 1.09e-11 1.09e-11 
03 01 03  02 01 02 4.95e-11 4.9e-11 4.86e-11 4.82e-11 4.79e-11 4.77e-11 4.75e-11 4.73e-11 4.72e-11 4.7e-11 4.68e-11 4.65e-11 4.62e-11 4.6e-11 4.57e-11 4.54e-11 4.52e-11 4.49e-11 4.46e-11 4.42e-11 4.39e-11 
03 01 03  02 01 01 2.71e-11 2.53e-11 2.4e-11 2.25e-11 2.18e-11 2.16e-11 2.16e-11 2.16e-11 2.16e-11 2.17e-11 2.17e-11 2.18e-11 2.19e-11 2.19e-11 2.2e-11 2.2e-11 2.2e-11 2.2e-11 2.2e-11 2.19e-11 2.19e-11 
03 01 03  03 01 03 0 0 0 0 0 0 0 0 0 0 0 0 0 0 0 0 0 0 0 0 0 
03 01 03  03 01 02 2.72e-11 2.68e-11 2.5e-11 2.17e-11 1.95e-11 1.8e-11 1.7e-11 1.64e-11 1.59e-11 1.57e-11 1.54e-11 1.52e-11 1.52e-11 1.51e-11 1.51e-11 1.51e-11 1.52e-11 1.52e-11 1.52e-11 1.52e-11 1.52e-11 
03 01 03  04 01 04 2.05e-11 2.95e-11 3.54e-11 4.22e-11 4.62e-11 4.9e-11 5.08e-11 5.23e-11 5.33e-11 5.42e-11 5.49e-11 5.59e-11 5.67e-11 5.72e-11 5.76e-11 5.79e-11 5.8e-11 5.81e-11 5.81e-11 5.8e-11 5.78e-11 
03 01 03  04 01 03 2.77e-12 4.65e-12 6.12e-12 8.19e-12 9.87e-12 1.12e-11 1.25e-11 1.37e-11 1.48e-11 1.59e-11 1.68e-11 1.86e-11 2.01e-11 2.15e-11 2.28e-11 2.4e-11 2.51e-11 2.61e-11 2.7e-11 2.77e-11 2.84e-11 
03 01 03  05 01 05 6.25e-13 1.77e-12 3.08e-12 5.67e-12 8.08e-12 1.03e-11 1.22e-11 1.4e-11 1.57e-11 1.71e-11 1.85e-11 2.1e-11 2.3e-11 2.48e-11 2.64e-11 2.77e-11 2.9e-11 3e-11 3.1e-11 3.19e-11 3.27e-11 
03 01 03  05 01 04 2.73e-13 8.16e-13 1.41e-12 2.45e-12 3.29e-12 4.01e-12 4.65e-12 5.26e-12 5.82e-12 6.37e-12 6.9e-12 7.88e-12 8.77e-12 9.59e-12 1.03e-11 1.1e-11 1.15e-11 1.2e-11 1.25e-11 1.28e-11 1.31e-11 
03 01 03  06 01 06 9.44e-14 5e-13 1.16e-12 2.8e-12 4.47e-12 6.05e-12 7.52e-12 8.87e-12 1.01e-11 1.12e-11 1.23e-11 1.41e-11 1.56e-11 1.69e-11 1.81e-11 1.9e-11 1.99e-11 2.07e-11 2.14e-11 2.2e-11 2.26e-11 
03 01 03  06 01 05 3.35e-14 2.07e-13 5.15e-13 1.31e-12 2.13e-12 2.91e-12 3.64e-12 4.32e-12 4.97e-12 5.58e-12 6.17e-12 7.28e-12 8.33e-12 9.33e-12 1.03e-11 1.12e-11 1.22e-11 1.31e-11 1.4e-11 1.5e-11 1.59e-11 
03 01 03  07 01 07 5.48e-15 6.24e-14 2.09e-13 7.04e-13 1.32e-12 1.96e-12 2.6e-12 3.22e-12 3.82e-12 4.4e-12 4.96e-12 6.03e-12 7.03e-12 7.99e-12 8.88e-12 9.72e-12 1.05e-11 1.12e-11 1.19e-11 1.26e-11 1.32e-11 
03 01 03  07 01 06 9.35e-16 1.38e-14 5.47e-14 2.26e-13 4.8e-13 7.75e-13 1.09e-12 1.42e-12 1.75e-12 2.09e-12 2.42e-12 3.09e-12 3.75e-12 4.4e-12 5.03e-12 5.65e-12 6.25e-12 6.83e-12 7.38e-12 7.92e-12 8.45e-12 
03 01 03  08 01 08 5.66e-16 1.61e-14 8.6e-14 4.59e-13 1.07e-12 1.78e-12 2.52e-12 3.26e-12 3.97e-12 4.67e-12 5.33e-12 6.6e-12 7.76e-12 8.83e-12 9.8e-12 1.07e-11 1.16e-11 1.23e-11 1.3e-11 1.37e-11 1.43e-11 
03 01 03  08 01 07 3.31e-17 1.3e-15 8.46e-15 5.94e-14 1.69e-13 3.3e-13 5.31e-13 7.55e-13 1e-12 1.26e-12 1.53e-12 2.06e-12 2.61e-12 3.14e-12 3.68e-12 4.21e-12 4.74e-12 5.26e-12 5.78e-12 6.3e-12 6.82e-12 
03 01 03  09 01 09 8.14e-18 6.86e-16 6.39e-15 6.12e-14 1.94e-13 3.97e-13 6.46e-13 9.3e-13 1.23e-12 1.53e-12 1.84e-12 2.45e-12 3.04e-12 3.61e-12 4.17e-12 4.69e-12 5.2e-12 5.72e-12 6.21e-12 6.71e-12 7.21e-12 
03 01 03  09 01 08 2.74e-19 3.22e-17 3.73e-16 4.94e-15 2.04e-14 5.2e-14 1.03e-13 1.74e-13 2.65e-13 3.76e-13 5.05e-13 8.1e-13 1.17e-12 1.56e-12 2e-12 2.44e-12 2.92e-12 3.39e-12 3.9e-12 4.39e-12 4.92e-12 
03 01 03  10 01 10 2.11e-19 5.27e-17 8.54e-16 1.44e-14 6.17e-14 1.5e-13 2.76e-13 4.28e-13 6.06e-13 7.96e-13 9.97e-13 1.42e-12 1.86e-12 2.3e-12 2.75e-12 3.2e-12 3.65e-12 4.09e-12 4.54e-12 5e-12 5.44e-12 
03 01 03  10 01 09 9.98e-21 4.17e-18 9.04e-17 2.19e-15 1.19e-14 3.5e-14 7.52e-14 1.33e-13 2.08e-13 2.98e-13 4.01e-13 6.34e-13 8.9e-13 1.16e-12 1.43e-12 1.69e-12 1.95e-12 2.2e-12 2.43e-12 2.65e-12 2.87e-12 
03 01 03  11 01 11 3.78e-21 3.26e-18 9.68e-17 2.95e-15 1.66e-14 4.8e-14 9.89e-14 1.68e-13 2.54e-13 3.53e-13 4.63e-13 7.16e-13 9.89e-13 1.29e-12 1.6e-12 1.92e-12 2.25e-12 2.58e-12 2.92e-12 3.27e-12 3.61e-12 
03 01 03  11 01 10 8.21e-23 1.15e-19 4.53e-18 1.98e-16 1.45e-15 5.25e-15 1.3e-14 2.61e-14 4.52e-14 7.08e-14 1.03e-13 1.89e-13 3e-13 4.35e-13 5.91e-13 7.67e-13 9.61e-13 1.17e-12 1.39e-12 1.63e-12 1.89e-12 
03 01 03  12 01 12 2.21e-23 6.96e-20 3.94e-18 2.31e-16 1.85e-15 6.69e-15 1.64e-14 3.17e-14 5.34e-14 8.14e-14 1.16e-13 2.02e-13 3.1e-13 4.38e-13 5.82e-13 7.43e-13 9.16e-13 1.1e-12 1.3e-12 1.51e-12 1.73e-12 
03 01 03  12 01 11 1.63e-24 1.05e-20 8.77e-19 8.01e-17 8.47e-16 3.74e-15 1.06e-14 2.31e-14 4.25e-14 6.97e-14 1.05e-13 2.01e-13 3.29e-13 4.85e-13 6.67e-13 8.72e-13 1.1e-12 1.35e-12 1.61e-12 1.88e-12 2.17e-12 
03 01 03  03 03 01 2.01e-16 4.53e-15 2.18e-14 1.08e-13 2.47e-13 4.12e-13 5.88e-13 7.68e-13 9.46e-13 1.12e-12 1.29e-12 1.63e-12 1.94e-12 2.25e-12 2.54e-12 2.81e-12 3.08e-12 3.33e-12 3.58e-12 3.82e-12 4.05e-12 
03 01 03  03 03 00 1.51e-16 3.36e-15 1.61e-14 8.07e-14 1.9e-13 3.27e-13 4.79e-13 6.39e-13 8e-13 9.61e-13 1.12e-12 1.43e-12 1.72e-12 2e-12 2.26e-12 2.5e-12 2.73e-12 2.96e-12 3.16e-12 3.36e-12 3.55e-12 
03 01 03  04 03 02 1e-16 3.46e-15 2.02e-14 1.17e-13 2.86e-13 4.92e-13 7.16e-13 9.41e-13 1.16e-12 1.38e-12 1.59e-12 1.97e-12 2.33e-12 2.65e-12 2.94e-12 3.22e-12 3.48e-12 3.72e-12 3.96e-12 4.17e-12 4.39e-12 
03 01 03  04 03 01 8.58e-17 3.12e-15 1.88e-14 1.15e-13 2.9e-13 5.15e-13 7.68e-13 1.03e-12 1.3e-12 1.57e-12 1.83e-12 2.35e-12 2.83e-12 3.29e-12 3.72e-12 4.13e-12 4.51e-12 4.88e-12 5.23e-12 5.56e-12 5.88e-12 
03 01 03  05 03 03 2.08e-17 1.4e-15 1.15e-14 9.73e-14 2.9e-13 5.7e-13 9.07e-13 1.27e-12 1.66e-12 2.04e-12 2.42e-12 3.14e-12 3.81e-12 4.42e-12 4.98e-12 5.48e-12 5.94e-12 6.36e-12 6.74e-12 7.08e-12 7.4e-12 
03 01 03  05 03 02 8.07e-18 5.34e-16 4.36e-15 3.61e-14 1.05e-13 2.01e-13 3.12e-13 4.29e-13 5.44e-13 6.6e-13 7.68e-13 9.76e-13 1.16e-12 1.33e-12 1.48e-12 1.63e-12 1.75e-12 1.88e-12 1.99e-12 2.1e-12 2.21e-12 
03 01 03  06 03 04 3.2e-18 4.39e-16 5.21e-15 6.41e-14 2.33e-13 5.14e-13 8.83e-13 1.31e-12 1.77e-12 2.25e-12 2.72e-12 3.64e-12 4.49e-12 5.27e-12 5.96e-12 6.59e-12 7.17e-12 7.7e-12 8.2e-12 8.66e-12 9.09e-12 
03 01 03  06 03 03 9.94e-19 1.35e-16 1.61e-15 2e-14 7.14e-14 1.55e-13 2.6e-13 3.78e-13 5.01e-13 6.25e-13 7.45e-13 9.63e-13 1.15e-12 1.31e-12 1.44e-12 1.56e-12 1.65e-12 1.72e-12 1.78e-12 1.83e-12 1.86e-12 
03 01 03  07 03 05 2.48e-19 7.39e-17 1.28e-15 2.23e-14 9.38e-14 2.23e-13 3.99e-13 6.1e-13 8.41e-13 1.08e-12 1.34e-12 1.85e-12 2.36e-12 2.86e-12 3.33e-12 3.79e-12 4.22e-12 4.64e-12 5.02e-12 5.4e-12 5.74e-12 
03 01 03  07 03 04 7.25e-20 2.14e-17 3.67e-16 6.34e-15 2.66e-14 6.35e-14 1.14e-13 1.75e-13 2.42e-13 3.12e-13 3.84e-13 5.27e-13 6.66e-13 7.91e-13 9.16e-13 1.02e-12 1.12e-12 1.21e-12 1.3e-12 1.37e-12 1.45e-12 
03 01 03  08 03 06 1.02e-20 7.8e-18 2.17e-16 6.17e-15 3.34e-14 9.3e-14 1.86e-13 3.08e-13 4.52e-13 6.12e-13 7.84e-13 1.15e-12 1.54e-12 1.92e-12 2.3e-12 2.66e-12 3.01e-12 3.35e-12 3.66e-12 3.96e-12 4.26e-12 
03 01 03  08 03 05 4.88e-21 3.73e-18 1.04e-16 2.97e-15 1.62e-14 4.52e-14 9.05e-14 1.48e-13 2.16e-13 2.9e-13 3.69e-13 5.29e-13 6.88e-13 8.43e-13 9.85e-13 1.13e-12 1.26e-12 1.38e-12 1.51e-12 1.63e-12 1.73e-12 
03 01 03  09 03 07 4.38e-22 9.73e-19 4.64e-17 2.23e-15 1.57e-14 5.06e-14 1.11e-13 1.94e-13 2.96e-13 4.12e-13 5.38e-13 8.1e-13 1.09e-12 1.38e-12 1.67e-12 1.96e-12 2.25e-12 2.53e-12 2.81e-12 3.09e-12 3.38e-12 
03 01 03  09 03 06 1.91e-22 4.2e-19 1.99e-17 9.56e-16 6.73e-15 2.19e-14 4.86e-14 8.64e-14 1.34e-13 1.89e-13 2.5e-13 3.84e-13 5.26e-13 6.72e-13 8.12e-13 9.48e-13 1.07e-12 1.2e-12 1.31e-12 1.42e-12 1.51e-12 
03 01 03  10 03 08 1.09e-23 8.1e-20 7.04e-18 6.15e-16 5.8e-15 2.25e-14 5.62e-14 1.08e-13 1.78e-13 2.64e-13 3.63e-13 5.88e-13 8.43e-13 1.11e-12 1.39e-12 1.69e-12 2e-12 2.31e-12 2.62e-12 2.95e-12 3.27e-12 
03 01 03  10 03 07 4.78e-24 3.57e-20 3.1e-18 2.74e-16 2.62e-15 1.03e-14 2.58e-14 5.03e-14 8.34e-14 1.24e-13 1.71e-13 2.81e-13 4.05e-13 5.37e-13 6.74e-13 8.17e-13 9.58e-13 1.1e-12 1.24e-12 1.38e-12 1.53e-12 
03 01 02  01 01 01 2.58e-12 2.62e-12 2.71e-12 3.04e-12 3.45e-12 3.86e-12 4.26e-12 4.63e-12 4.98e-12 5.29e-12 5.57e-12 6.07e-12 6.48e-12 6.83e-12 7.11e-12 7.35e-12 7.54e-12 7.7e-12 7.82e-12 7.92e-12 7.99e-12 
03 01 02  01 01 00 9.33e-12 9.8e-12 1.02e-11 1.11e-11 1.2e-11 1.28e-11 1.35e-11 1.42e-11 1.49e-11 1.55e-11 1.6e-11 1.7e-11 1.79e-11 1.87e-11 1.94e-11 2e-11 2.05e-11 2.1e-11 2.14e-11 2.18e-11 2.21e-11 
03 01 02  02 01 02 1.19e-11 1.2e-11 1.23e-11 1.32e-11 1.41e-11 1.51e-11 1.6e-11 1.69e-11 1.78e-11 1.86e-11 1.94e-11 2.08e-11 2.21e-11 2.32e-11 2.43e-11 2.52e-11 2.59e-11 2.66e-11 2.72e-11 2.77e-11 2.81e-11 
03 01 02  02 01 01 4.37e-11 4.24e-11 4.11e-11 3.91e-11 3.79e-11 3.71e-11 3.66e-11 3.63e-11 3.6e-11 3.59e-11 3.58e-11 3.57e-11 3.57e-11 3.57e-11 3.58e-11 3.58e-11 3.58e-11 3.58e-11 3.57e-11 3.56e-11 3.55e-11 
03 01 02  03 01 03 3.12e-11 2.94e-11 2.68e-11 2.27e-11 2.02e-11 1.85e-11 1.74e-11 1.67e-11 1.62e-11 1.59e-11 1.56e-11 1.54e-11 1.53e-11 1.52e-11 1.52e-11 1.52e-11 1.53e-11 1.53e-11 1.53e-11 1.53e-11 1.53e-11 
03 01 02  03 01 02 0 0 0 0 0 0 0 0 0 0 0 0 0 0 0 0 0 0 0 0 0 
03 01 02  04 01 04 1.4e-11 1.64e-11 1.71e-11 1.76e-11 1.79e-11 1.84e-11 1.87e-11 1.91e-11 1.94e-11 1.98e-11 2e-11 2.06e-11 2.1e-11 2.12e-11 2.15e-11 2.18e-11 2.19e-11 2.2e-11 2.22e-11 2.23e-11 2.23e-11 
03 01 02  04 01 03 1.17e-11 1.92e-11 2.48e-11 3.2e-11 3.62e-11 3.9e-11 4.08e-11 4.23e-11 4.33e-11 4.41e-11 4.47e-11 4.58e-11 4.66e-11 4.71e-11 4.76e-11 4.8e-11 4.83e-11 4.85e-11 4.86e-11 4.87e-11 4.88e-11 
03 01 02  05 01 05 1.36e-12 3.5e-12 5.6e-12 8.96e-12 1.14e-11 1.33e-11 1.47e-11 1.6e-11 1.69e-11 1.79e-11 1.86e-11 1.99e-11 2.08e-11 2.16e-11 2.23e-11 2.28e-11 2.34e-11 2.37e-11 2.4e-11 2.42e-11 2.45e-11 
03 01 02  05 01 04 1.11e-12 3.1e-12 5.14e-12 8.72e-12 1.17e-11 1.43e-11 1.66e-11 1.88e-11 2.07e-11 2.26e-11 2.42e-11 2.72e-11 2.99e-11 3.21e-11 3.41e-11 3.58e-11 3.73e-11 3.86e-11 3.95e-11 4.06e-11 4.13e-11 
03 01 02  06 01 06 1.03e-13 5.04e-13 1.11e-12 2.43e-12 3.61e-12 4.61e-12 5.46e-12 6.2e-12 6.84e-12 7.4e-12 7.9e-12 8.74e-12 9.44e-12 1e-11 1.05e-11 1.09e-11 1.13e-11 1.16e-11 1.19e-11 1.22e-11 1.24e-11 
03 01 02  06 01 05 6.09e-14 3.61e-13 8.87e-13 2.23e-12 3.62e-12 4.92e-12 6.1e-12 7.17e-12 8.15e-12 9.04e-12 9.84e-12 1.13e-11 1.25e-11 1.35e-11 1.44e-11 1.52e-11 1.58e-11 1.64e-11 1.7e-11 1.75e-11 1.78e-11 
03 01 02  07 01 07 1.52e-14 1.72e-13 5.87e-13 1.98e-12 3.63e-12 5.23e-12 6.74e-12 8.01e-12 9.21e-12 1.02e-11 1.12e-11 1.27e-11 1.4e-11 1.52e-11 1.62e-11 1.71e-11 1.78e-11 1.87e-11 1.93e-11 2e-11 2.05e-11 
03 01 02  07 01 06 3.12e-15 4.27e-14 1.6e-13 6.18e-13 1.25e-12 1.95e-12 2.66e-12 3.36e-12 4.04e-12 4.71e-12 5.35e-12 6.58e-12 7.75e-12 8.86e-12 9.94e-12 1.1e-11 1.19e-11 1.29e-11 1.38e-11 1.47e-11 1.56e-11 
03 01 02  08 01 08 4.17e-16 1.12e-14 5.8e-14 3.02e-13 6.9e-13 1.14e-12 1.59e-12 2.03e-12 2.44e-12 2.81e-12 3.16e-12 3.76e-12 4.28e-12 4.73e-12 5.13e-12 5.48e-12 5.8e-12 6.08e-12 6.33e-12 6.56e-12 6.79e-12 
03 01 02  08 01 07 5.09e-17 1.79e-15 1.09e-14 7.09e-14 1.99e-13 3.95e-13 6.47e-13 9.51e-13 1.29e-12 1.66e-12 2.04e-12 2.83e-12 3.62e-12 4.37e-12 5.08e-12 5.75e-12 6.38e-12 6.94e-12 7.48e-12 7.95e-12 8.39e-12 
03 01 02  09 01 09 1.28e-17 1.06e-15 9.81e-15 9.39e-14 2.98e-13 6.04e-13 9.8e-13 1.39e-12 1.83e-12 2.27e-12 2.7e-12 3.54e-12 4.34e-12 5.09e-12 5.79e-12 6.45e-12 7.08e-12 7.68e-12 8.25e-12 8.81e-12 9.33e-12 
03 01 02  09 01 08 9.88e-19 1.12e-16 1.26e-15 1.56e-14 5.94e-14 1.39e-13 2.53e-13 3.96e-13 5.65e-13 7.5e-13 9.5e-13 1.38e-12 1.86e-12 2.36e-12 2.89e-12 3.44e-12 4.02e-12 4.62e-12 5.26e-12 5.91e-12 6.59e-12 
03 01 02  10 01 10 3.59e-19 8.21e-17 1.25e-15 1.94e-14 7.82e-14 1.83e-13 3.27e-13 5e-13 6.94e-13 9e-13 1.12e-12 1.56e-12 2.01e-12 2.44e-12 2.86e-12 3.26e-12 3.64e-12 4e-12 4.32e-12 4.64e-12 4.95e-12 
03 01 02  10 01 09 5.29e-21 2.05e-18 4.28e-17 1.06e-15 6.23e-15 2.05e-14 4.87e-14 9.54e-14 1.63e-13 2.52e-13 3.62e-13 6.42e-13 9.92e-13 1.39e-12 1.83e-12 2.3e-12 2.79e-12 3.3e-12 3.83e-12 4.37e-12 4.91e-12 
03 01 02  11 01 11 3e-21 2.5e-18 7.36e-17 2.23e-15 1.28e-14 3.77e-14 7.93e-14 1.37e-13 2.1e-13 2.96e-13 3.93e-13 6.1e-13 8.5e-13 1.1e-12 1.36e-12 1.62e-12 1.88e-12 2.14e-12 2.41e-12 2.67e-12 2.94e-12 
03 01 02  11 01 10 3.42e-22 4.61e-19 1.77e-17 7.45e-16 5.31e-15 1.83e-14 4.36e-14 8.34e-14 1.38e-13 2.07e-13 2.89e-13 4.84e-13 7.13e-13 9.59e-13 1.21e-12 1.47e-12 1.73e-12 1.99e-12 2.23e-12 2.49e-12 2.71e-12 
03 01 02  12 01 12 4.51e-23 1.4e-19 8.02e-18 4.86e-16 3.94e-15 1.42e-14 3.42e-14 6.55e-14 1.09e-13 1.65e-13 2.33e-13 4.09e-13 6.35e-13 9.14e-13 1.24e-12 1.61e-12 2.03e-12 2.49e-12 2.99e-12 3.52e-12 4.1e-12 
03 01 02  12 01 11 1.47e-24 8.77e-21 6.95e-19 5.89e-17 5.86e-16 2.47e-15 6.8e-15 1.46e-14 2.67e-14 4.39e-14 6.66e-14 1.31e-13 2.2e-13 3.37e-13 4.8e-13 6.49e-13 8.44e-13 1.06e-12 1.3e-12 1.57e-12 1.85e-12 
03 01 02  03 03 01 3.93e-16 8.91e-15 4.28e-14 2.1e-13 4.76e-13 7.87e-13 1.11e-12 1.43e-12 1.75e-12 2.05e-12 2.34e-12 2.87e-12 3.34e-12 3.77e-12 4.16e-12 4.52e-12 4.84e-12 5.15e-12 5.42e-12 5.69e-12 5.92e-12 
03 01 02  03 03 00 3.1e-16 6.79e-15 3.18e-14 1.51e-13 3.37e-13 5.56e-13 7.87e-13 1.02e-12 1.26e-12 1.48e-12 1.7e-12 2.12e-12 2.51e-12 2.87e-12 3.21e-12 3.51e-12 3.8e-12 4.07e-12 4.32e-12 4.55e-12 4.77e-12 
03 01 02  04 03 02 1.05e-16 3.64e-15 2.17e-14 1.33e-13 3.42e-13 6.17e-13 9.32e-13 1.27e-12 1.61e-12 1.96e-12 2.31e-12 2.98e-12 3.61e-12 4.21e-12 4.77e-12 5.29e-12 5.8e-12 6.27e-12 6.72e-12 7.14e-12 7.56e-12 
03 01 02  04 03 01 5.01e-17 1.75e-15 1.06e-14 6.68e-14 1.74e-13 3.17e-13 4.82e-13 6.59e-13 8.42e-13 1.02e-12 1.2e-12 1.56e-12 1.9e-12 2.22e-12 2.53e-12 2.83e-12 3.12e-12 3.41e-12 3.69e-12 3.97e-12 4.24e-12 
03 01 02  05 03 03 9.79e-18 6.27e-16 5.04e-15 4.07e-14 1.17e-13 2.25e-13 3.48e-13 4.82e-13 6.16e-13 7.52e-13 8.83e-13 1.13e-12 1.35e-12 1.55e-12 1.73e-12 1.88e-12 2.03e-12 2.16e-12 2.27e-12 2.38e-12 2.49e-12 
03 01 02  05 03 02 2.15e-17 1.33e-15 1.05e-14 8.38e-14 2.42e-13 4.63e-13 7.26e-13 1.01e-12 1.31e-12 1.61e-12 1.91e-12 2.49e-12 3.05e-12 3.59e-12 4.1e-12 4.59e-12 5.06e-12 5.51e-12 5.95e-12 6.36e-12 6.79e-12 
03 01 02  06 03 04 1.18e-18 1.52e-16 1.72e-15 1.96e-14 6.67e-14 1.39e-13 2.28e-13 3.26e-13 4.25e-13 5.25e-13 6.21e-13 7.92e-13 9.43e-13 1.07e-12 1.17e-12 1.26e-12 1.35e-12 1.42e-12 1.48e-12 1.54e-12 1.6e-12 
03 01 02  06 03 03 2.96e-18 3.72e-16 4.15e-15 4.68e-14 1.6e-13 3.37e-13 5.59e-13 8.06e-13 1.07e-12 1.32e-12 1.58e-12 2.07e-12 2.52e-12 2.93e-12 3.3e-12 3.65e-12 3.97e-12 4.28e-12 4.58e-12 4.85e-12 5.13e-12 
03 01 02  07 03 05 1.04e-19 2.89e-17 4.78e-16 7.82e-15 3.15e-14 7.23e-14 1.26e-13 1.9e-13 2.57e-13 3.26e-13 3.98e-13 5.39e-13 6.79e-13 8.05e-13 9.31e-13 1.04e-12 1.15e-12 1.25e-12 1.35e-12 1.43e-12 1.52e-12 
03 01 02  07 03 04 3.41e-19 9.63e-17 1.61e-15 2.68e-14 1.08e-13 2.49e-13 4.33e-13 6.44e-13 8.68e-13 1.1e-12 1.33e-12 1.79e-12 2.22e-12 2.64e-12 3.03e-12 3.39e-12 3.73e-12 4.06e-12 4.35e-12 4.62e-12 4.87e-12 
03 01 02  08 03 06 8.25e-21 5.96e-18 1.6e-16 4.34e-15 2.28e-14 6.2e-14 1.21e-13 1.96e-13 2.81e-13 3.7e-13 4.64e-13 6.51e-13 8.3e-13 1e-12 1.16e-12 1.31e-12 1.45e-12 1.57e-12 1.7e-12 1.82e-12 1.92e-12 
03 01 02  08 03 05 1.46e-20 1.07e-17 2.91e-16 7.99e-15 4.24e-14 1.16e-13 2.29e-13 3.73e-13 5.37e-13 7.18e-13 9.09e-13 1.3e-12 1.7e-12 2.08e-12 2.45e-12 2.81e-12 3.15e-12 3.49e-12 3.8e-12 4.11e-12 4.41e-12 
03 01 02  09 03 07 3.21e-22 6.81e-19 3.17e-17 1.48e-15 1.02e-14 3.26e-14 7.07e-14 1.23e-13 1.86e-13 2.58e-13 3.33e-13 4.92e-13 6.52e-13 8.07e-13 9.54e-13 1.1e-12 1.23e-12 1.35e-12 1.48e-12 1.59e-12 1.69e-12 
03 01 02  09 03 06 5.65e-22 1.2e-18 5.64e-17 2.71e-15 1.92e-14 6.27e-14 1.39e-13 2.46e-13 3.79e-13 5.32e-13 6.98e-13 1.06e-12 1.43e-12 1.81e-12 2.17e-12 2.53e-12 2.87e-12 3.2e-12 3.51e-12 3.82e-12 4.11e-12 
03 01 02  10 03 08 9.72e-24 7.13e-20 6.15e-18 5.42e-16 5.21e-15 2.06e-14 5.2e-14 1.02e-13 1.69e-13 2.52e-13 3.46e-13 5.65e-13 8.01e-13 1.05e-12 1.29e-12 1.53e-12 1.76e-12 1.96e-12 2.17e-12 2.35e-12 2.52e-12 
03 01 02  10 03 07 1.09e-23 7.72e-20 6.52e-18 5.6e-16 5.33e-15 2.08e-14 5.2e-14 1.01e-13 1.68e-13 2.49e-13 3.44e-13 5.65e-13 8.19e-13 1.1e-12 1.39e-12 1.7e-12 2.03e-12 2.37e-12 2.71e-12 3.08e-12 3.44e-12 
04 01 04  01 01 01 1.22e-11 1.14e-11 1.1e-11 1.07e-11 1.07e-11 1.08e-11 1.09e-11 1.1e-11 1.1e-11 1.11e-11 1.11e-11 1.12e-11 1.13e-11 1.13e-11 1.13e-11 1.13e-11 1.13e-11 1.13e-11 1.13e-11 1.13e-11 1.13e-11 
04 01 04  01 01 00 1.07e-11 9.14e-12 8.25e-12 7.41e-12 7.15e-12 7.13e-12 7.21e-12 7.34e-12 7.48e-12 7.63e-12 7.76e-12 8e-12 8.2e-12 8.36e-12 8.48e-12 8.56e-12 8.63e-12 8.66e-12 8.68e-12 8.68e-12 8.65e-12 
04 01 04  02 01 02 1.71e-11 1.48e-11 1.38e-11 1.34e-11 1.38e-11 1.43e-11 1.49e-11 1.55e-11 1.61e-11 1.66e-11 1.71e-11 1.79e-11 1.85e-11 1.91e-11 1.95e-11 1.99e-11 2.01e-11 2.04e-11 2.05e-11 2.06e-11 2.07e-11 
04 01 04  02 01 01 2.06e-11 1.85e-11 1.74e-11 1.62e-11 1.57e-11 1.55e-11 1.53e-11 1.53e-11 1.53e-11 1.53e-11 1.53e-11 1.53e-11 1.54e-11 1.54e-11 1.54e-11 1.54e-11 1.55e-11 1.55e-11 1.55e-11 1.55e-11 1.55e-11 
04 01 04  03 01 03 6.15e-11 5.65e-11 5.4e-11 5.15e-11 5.04e-11 4.99e-11 4.95e-11 4.93e-11 4.91e-11 4.9e-11 4.89e-11 4.87e-11 4.86e-11 4.84e-11 4.83e-11 4.82e-11 4.8e-11 4.78e-11 4.76e-11 4.73e-11 4.7e-11 
04 01 04  03 01 02 3.65e-11 2.86e-11 2.44e-11 2.05e-11 1.89e-11 1.82e-11 1.78e-11 1.77e-11 1.76e-11 1.76e-11 1.76e-11 1.77e-11 1.78e-11 1.78e-11 1.79e-11 1.8e-11 1.8e-11 1.8e-11 1.81e-11 1.81e-11 1.81e-11 
04 01 04  04 01 04 0 0 0 0 0 0 0 0 0 0 0 0 0 0 0 0 0 0 0 0 0 
04 01 04  04 01 03 9.35e-12 9.85e-12 9.97e-12 9.99e-12 1e-11 1e-11 1e-11 1.02e-11 1.02e-11 1.03e-11 1.05e-11 1.08e-11 1.11e-11 1.14e-11 1.16e-11 1.19e-11 1.21e-11 1.23e-11 1.24e-11 1.25e-11 1.26e-11 
04 01 04  05 01 05 1.04e-11 1.85e-11 2.47e-11 3.33e-11 3.86e-11 4.23e-11 4.49e-11 4.7e-11 4.85e-11 4.97e-11 5.08e-11 5.23e-11 5.35e-11 5.43e-11 5.5e-11 5.55e-11 5.59e-11 5.62e-11 5.63e-11 5.65e-11 5.65e-11 
04 01 04  05 01 04 2.15e-12 3.96e-12 5.29e-12 7.06e-12 8.3e-12 9.35e-12 1.03e-11 1.11e-11 1.19e-11 1.27e-11 1.34e-11 1.47e-11 1.6e-11 1.7e-11 1.81e-11 1.9e-11 1.98e-11 2.07e-11 2.14e-11 2.21e-11 2.27e-11 
04 01 04  06 01 06 2.62e-13 9.33e-13 1.82e-12 3.78e-12 5.76e-12 7.69e-12 9.56e-12 1.14e-11 1.3e-11 1.46e-11 1.6e-11 1.88e-11 2.12e-11 2.32e-11 2.5e-11 2.66e-11 2.82e-11 2.94e-11 3.06e-11 3.16e-11 3.25e-11 
04 01 04  06 01 05 1.2e-13 4.7e-13 9.22e-13 1.81e-12 2.56e-12 3.17e-12 3.71e-12 4.18e-12 4.61e-12 5.03e-12 5.41e-12 6.13e-12 6.79e-12 7.41e-12 7.98e-12 8.52e-12 9.01e-12 9.47e-12 9.89e-12 1.03e-11 1.06e-11 
04 01 04  07 01 07 2.44e-14 1.85e-13 5.12e-13 1.44e-12 2.5e-12 3.57e-12 4.6e-12 5.58e-12 6.5e-12 7.37e-12 8.17e-12 9.63e-12 1.09e-11 1.2e-11 1.3e-11 1.38e-11 1.45e-11 1.51e-11 1.57e-11 1.62e-11 1.66e-11 
04 01 04  07 01 06 1.07e-14 9.7e-14 2.93e-13 8.93e-13 1.58e-12 2.25e-12 2.88e-12 3.47e-12 4.02e-12 4.54e-12 5.04e-12 5.97e-12 6.83e-12 7.66e-12 8.44e-12 9.21e-12 9.97e-12 1.07e-11 1.15e-11 1.22e-11 1.29e-11 
04 01 04  08 01 08 1.08e-15 1.89e-14 7.88e-14 3.31e-13 6.95e-13 1.11e-12 1.55e-12 2e-12 2.45e-12 2.91e-12 3.37e-12 4.3e-12 5.22e-12 6.15e-12 7.07e-12 7.97e-12 8.86e-12 9.73e-12 1.06e-11 1.14e-11 1.22e-11 
04 01 04  08 01 07 1.96e-16 4.84e-15 2.45e-14 1.29e-13 3.1e-13 5.35e-13 7.91e-13 1.06e-12 1.33e-12 1.62e-12 1.91e-12 2.49e-12 3.08e-12 3.68e-12 4.27e-12 4.88e-12 5.49e-12 6.11e-12 6.72e-12 7.34e-12 7.96e-12 
04 01 04  09 01 09 5.93e-17 3.18e-15 2.34e-14 1.75e-13 4.88e-13 9.12e-13 1.4e-12 1.93e-12 2.47e-12 3.01e-12 3.54e-12 4.57e-12 5.55e-12 6.47e-12 7.33e-12 8.15e-12 8.89e-12 9.61e-12 1.03e-11 1.09e-11 1.15e-11 
04 01 04  09 01 08 5.4e-18 3.86e-16 3.39e-15 3.21e-14 1.05e-13 2.21e-13 3.73e-13 5.54e-13 7.52e-13 9.65e-13 1.19e-12 1.65e-12 2.11e-12 2.58e-12 3.04e-12 3.47e-12 3.89e-12 4.31e-12 4.71e-12 5.09e-12 5.46e-12 
04 01 04  10 01 10 1.07e-18 1.65e-16 2.06e-15 2.63e-14 9.54e-14 2.09e-13 3.54e-13 5.21e-13 6.98e-13 8.83e-13 1.07e-12 1.46e-12 1.86e-12 2.26e-12 2.68e-12 3.11e-12 3.54e-12 4e-12 4.46e-12 4.95e-12 5.44e-12 
04 01 04  10 01 09 3.42e-20 9.25e-18 1.61e-16 3.13e-15 1.52e-14 4.19e-14 8.59e-14 1.47e-13 2.25e-13 3.18e-13 4.23e-13 6.62e-13 9.28e-13 1.21e-12 1.49e-12 1.79e-12 2.09e-12 2.37e-12 2.66e-12 2.94e-12 3.22e-12 
04 01 04  11 01 11 1.01e-20 5.94e-18 1.49e-16 3.95e-15 2.13e-14 5.98e-14 1.22e-13 2.07e-13 3.1e-13 4.31e-13 5.63e-13 8.61e-13 1.19e-12 1.55e-12 1.92e-12 2.31e-12 2.71e-12 3.12e-12 3.54e-12 3.98e-12 4.41e-12 
04 01 04  11 01 10 9.62e-22 8.72e-19 2.76e-17 9.61e-16 6.17e-15 1.99e-14 4.48e-14 8.16e-14 1.3e-13 1.89e-13 2.58e-13 4.15e-13 5.93e-13 7.83e-13 9.77e-13 1.18e-12 1.38e-12 1.58e-12 1.78e-12 1.98e-12 2.17e-12 
04 01 04  12 01 12 2.04e-22 4.13e-19 1.9e-17 9.15e-16 6.6e-15 2.23e-14 5.15e-14 9.52e-14 1.54e-13 2.25e-13 3.1e-13 5.08e-13 7.38e-13 9.98e-13 1.27e-12 1.57e-12 1.88e-12 2.2e-12 2.53e-12 2.86e-12 3.22e-12 
04 01 04  12 01 11 3.5e-24 1.47e-20 1e-18 7.9e-17 8.04e-16 3.56e-15 1.03e-14 2.28e-14 4.26e-14 7.11e-14 1.09e-13 2.11e-13 3.5e-13 5.22e-13 7.22e-13 9.49e-13 1.2e-12 1.47e-12 1.76e-12 2.06e-12 2.4e-12 
04 01 04  03 03 01 7.06e-16 9.91e-15 3.7e-14 1.41e-13 2.82e-13 4.4e-13 6.01e-13 7.61e-13 9.14e-13 1.06e-12 1.21e-12 1.47e-12 1.72e-12 1.94e-12 2.15e-12 2.34e-12 2.52e-12 2.69e-12 2.86e-12 3.01e-12 3.16e-12 
04 01 04  03 03 00 6.07e-16 9.33e-15 3.73e-14 1.56e-13 3.25e-13 5.13e-13 7.01e-13 8.82e-13 1.05e-12 1.21e-12 1.36e-12 1.63e-12 1.88e-12 2.1e-12 2.31e-12 2.5e-12 2.69e-12 2.86e-12 3.03e-12 3.19e-12 3.36e-12 
04 01 04  04 03 02 1.78e-16 4.27e-15 2.13e-14 1.11e-13 2.62e-13 4.48e-13 6.51e-13 8.6e-13 1.07e-12 1.27e-12 1.47e-12 1.84e-12 2.19e-12 2.52e-12 2.82e-12 3.12e-12 3.39e-12 3.66e-12 3.91e-12 4.15e-12 4.39e-12 
04 01 04  04 03 01 3.99e-16 9.1e-15 4.36e-14 2.13e-13 4.81e-13 7.95e-13 1.12e-12 1.45e-12 1.77e-12 2.06e-12 2.35e-12 2.87e-12 3.32e-12 3.72e-12 4.08e-12 4.4e-12 4.69e-12 4.95e-12 5.18e-12 5.39e-12 5.58e-12 
04 01 04  05 03 03 3.62e-17 1.55e-15 1.01e-14 6.62e-14 1.72e-13 3.11e-13 4.66e-13 6.29e-13 7.93e-13 9.56e-13 1.11e-12 1.42e-12 1.7e-12 1.97e-12 2.22e-12 2.46e-12 2.69e-12 2.92e-12 3.14e-12 3.36e-12 3.57e-12 
04 01 04  05 03 02 8.37e-17 3.61e-15 2.4e-14 1.64e-13 4.43e-13 8.17e-13 1.25e-12 1.7e-12 2.16e-12 2.62e-12 3.07e-12 3.91e-12 4.68e-12 5.39e-12 6.03e-12 6.61e-12 7.15e-12 7.64e-12 8.08e-12 8.49e-12 8.89e-12 
04 01 04  06 03 04 8.46e-18 7.4e-16 6.96e-15 6.74e-14 2.18e-13 4.5e-13 7.44e-13 1.07e-12 1.43e-12 1.78e-12 2.14e-12 2.81e-12 3.42e-12 3.97e-12 4.46e-12 4.88e-12 5.27e-12 5.62e-12 5.92e-12 6.21e-12 6.46e-12 
04 01 04  06 03 03 6.7e-18 5.88e-16 5.65e-15 5.67e-14 1.87e-13 3.9e-13 6.49e-13 9.39e-13 1.25e-12 1.56e-12 1.87e-12 2.46e-12 2.99e-12 3.45e-12 3.87e-12 4.22e-12 4.54e-12 4.82e-12 5.07e-12 5.29e-12 5.49e-12 
04 01 04  07 03 05 8.56e-19 1.6e-16 2.17e-15 2.91e-14 1.06e-13 2.31e-13 3.9e-13 5.68e-13 7.6e-13 9.56e-13 1.16e-12 1.57e-12 1.98e-12 2.39e-12 2.81e-12 3.22e-12 3.63e-12 4.03e-12 4.43e-12 4.83e-12 5.23e-12 
04 01 04  07 03 04 4.05e-19 7.88e-17 1.12e-15 1.64e-14 6.44e-14 1.47e-13 2.57e-13 3.86e-13 5.25e-13 6.69e-13 8.15e-13 1.1e-12 1.38e-12 1.64e-12 1.88e-12 2.11e-12 2.32e-12 2.52e-12 2.69e-12 2.86e-12 3.02e-12 
04 01 04  08 03 06 5.14e-20 2.47e-17 5.42e-16 1.2e-14 5.67e-14 1.45e-13 2.74e-13 4.33e-13 6.15e-13 8.13e-13 1.02e-12 1.45e-12 1.89e-12 2.31e-12 2.71e-12 3.1e-12 3.46e-12 3.79e-12 4.1e-12 4.39e-12 4.65e-12 
04 01 04  08 03 05 1.49e-20 7.18e-18 1.59e-16 3.6e-15 1.74e-14 4.51e-14 8.56e-14 1.36e-13 1.93e-13 2.55e-13 3.2e-13 4.52e-13 5.79e-13 7.02e-13 8.12e-13 9.23e-13 1.02e-12 1.12e-12 1.21e-12 1.29e-12 1.37e-12 
04 01 04  09 03 07 1.61e-21 2.3e-18 8.79e-17 3.43e-15 2.17e-14 6.6e-14 1.39e-13 2.39e-13 3.6e-13 5e-13 6.51e-13 9.88e-13 1.35e-12 1.73e-12 2.12e-12 2.52e-12 2.92e-12 3.32e-12 3.74e-12 4.15e-12 4.57e-12 
04 01 04  09 03 06 8.46e-22 1.18e-18 4.43e-17 1.68e-15 1.05e-14 3.2e-14 6.73e-14 1.15e-13 1.74e-13 2.39e-13 3.06e-13 4.51e-13 5.98e-13 7.36e-13 8.69e-13 9.88e-13 1.1e-12 1.2e-12 1.3e-12 1.39e-12 1.46e-12 
04 01 04  10 03 08 4.04e-23 1.97e-19 1.39e-17 1e-15 8.69e-15 3.22e-14 7.79e-14 1.47e-13 2.37e-13 3.45e-13 4.68e-13 7.39e-13 1.03e-12 1.33e-12 1.63e-12 1.92e-12 2.21e-12 2.48e-12 2.75e-12 3.01e-12 3.27e-12 
04 01 04  10 03 07 2.59e-23 1.21e-19 8.16e-18 5.55e-16 4.6e-15 1.64e-14 3.88e-14 7.2e-14 1.15e-13 1.68e-13 2.26e-13 3.58e-13 5.07e-13 6.54e-13 8.09e-13 9.57e-13 1.1e-12 1.25e-12 1.39e-12 1.51e-12 1.64e-12 
04 01 03  01 01 01 2.1e-12 2.27e-12 2.47e-12 2.9e-12 3.33e-12 3.73e-12 4.12e-12 4.48e-12 4.82e-12 5.14e-12 5.45e-12 6.02e-12 6.56e-12 7.06e-12 7.53e-12 7.98e-12 8.41e-12 8.81e-12 9.2e-12 9.56e-12 9.91e-12 
04 01 03  01 01 00 1.24e-12 1.39e-12 1.56e-12 1.94e-12 2.33e-12 2.7e-12 3.04e-12 3.35e-12 3.63e-12 3.89e-12 4.12e-12 4.53e-12 4.86e-12 5.15e-12 5.39e-12 5.58e-12 5.75e-12 5.88e-12 5.99e-12 6.07e-12 6.12e-12 
04 01 03  02 01 02 3.53e-12 3.7e-12 3.87e-12 4.2e-12 4.52e-12 4.84e-12 5.17e-12 5.49e-12 5.81e-12 6.11e-12 6.41e-12 6.94e-12 7.41e-12 7.82e-12 8.17e-12 8.47e-12 8.72e-12 8.92e-12 9.09e-12 9.22e-12 9.32e-12 
04 01 03  02 01 01 9.92e-12 1.05e-11 1.1e-11 1.21e-11 1.32e-11 1.43e-11 1.53e-11 1.63e-11 1.72e-11 1.8e-11 1.88e-11 2.02e-11 2.14e-11 2.25e-11 2.34e-11 2.43e-11 2.5e-11 2.57e-11 2.63e-11 2.69e-11 2.74e-11 
04 01 03  03 01 03 1.05e-11 1.04e-11 1.05e-11 1.08e-11 1.14e-11 1.2e-11 1.27e-11 1.34e-11 1.4e-11 1.47e-11 1.53e-11 1.65e-11 1.75e-11 1.85e-11 1.94e-11 2.02e-11 2.1e-11 2.17e-11 2.23e-11 2.28e-11 2.33e-11 
04 01 03  03 01 02 3.85e-11 3.92e-11 3.98e-11 4.03e-11 4.04e-11 4.05e-11 4.04e-11 4.04e-11 4.03e-11 4.03e-11 4.02e-11 4.02e-11 4.02e-11 4.01e-11 4.01e-11 4.01e-11 4.01e-11 4.01e-11 4e-11 3.99e-11 3.98e-11 
04 01 03  04 01 04 1.18e-11 1.15e-11 1.12e-11 1.08e-11 1.06e-11 1.05e-11 1.04e-11 1.05e-11 1.05e-11 1.06e-11 1.08e-11 1.1e-11 1.13e-11 1.16e-11 1.18e-11 1.2e-11 1.22e-11 1.24e-11 1.25e-11 1.26e-11 1.27e-11 
04 01 03  04 01 03 0 0 0 0 0 0 0 0 0 0 0 0 0 0 0 0 0 0 0 0 0 
04 01 03  05 01 05 3.67e-12 5.92e-12 7.49e-12 9.63e-12 1.09e-11 1.2e-11 1.27e-11 1.33e-11 1.39e-11 1.42e-11 1.47e-11 1.53e-11 1.57e-11 1.62e-11 1.65e-11 1.67e-11 1.69e-11 1.71e-11 1.73e-11 1.75e-11 1.76e-11 
04 01 03  05 01 04 1.06e-11 1.89e-11 2.5e-11 3.28e-11 3.74e-11 4.04e-11 4.23e-11 4.38e-11 4.5e-11 4.58e-11 4.65e-11 4.76e-11 4.85e-11 4.9e-11 4.95e-11 4.99e-11 5.02e-11 5.03e-11 5.05e-11 5.07e-11 5.06e-11 
04 01 03  06 01 06 6.65e-13 2.08e-12 3.69e-12 6.56e-12 8.83e-12 1.06e-11 1.2e-11 1.32e-11 1.42e-11 1.51e-11 1.58e-11 1.71e-11 1.81e-11 1.89e-11 1.96e-11 2.03e-11 2.08e-11 2.12e-11 2.17e-11 2.21e-11 2.25e-11 
04 01 03  06 01 05 5.94e-13 2.12e-12 3.97e-12 7.5e-12 1.04e-11 1.3e-11 1.52e-11 1.72e-11 1.9e-11 2.07e-11 2.22e-11 2.5e-11 2.75e-11 2.96e-11 3.15e-11 3.3e-11 3.45e-11 3.57e-11 3.67e-11 3.76e-11 3.83e-11 
04 01 03  07 01 07 4.09e-14 2.75e-13 7.05e-13 1.79e-12 2.84e-12 3.76e-12 4.55e-12 5.22e-12 5.8e-12 6.31e-12 6.75e-12 7.5e-12 8.11e-12 8.61e-12 9.03e-12 9.38e-12 9.67e-12 9.93e-12 1.01e-11 1.03e-11 1.04e-11 
04 01 03  07 01 06 2.38e-14 2.03e-13 5.96e-13 1.79e-12 3.17e-12 4.53e-12 5.81e-12 6.98e-12 8.07e-12 9.07e-12 1e-11 1.15e-11 1.29e-11 1.4e-11 1.5e-11 1.58e-11 1.64e-11 1.7e-11 1.74e-11 1.78e-11 1.81e-11 
04 01 03  08 01 08 3.48e-15 5.93e-14 2.47e-13 1.04e-12 2.13e-12 3.29e-12 4.4e-12 5.42e-12 6.35e-12 7.19e-12 7.95e-12 9.26e-12 1.05e-11 1.14e-11 1.23e-11 1.32e-11 1.4e-11 1.47e-11 1.54e-11 1.6e-11 1.66e-11 
04 01 03  08 01 07 6.47e-16 1.47e-14 7.08e-14 3.51e-13 7.99e-13 1.33e-12 1.91e-12 2.49e-12 3.07e-12 3.64e-12 4.21e-12 5.33e-12 6.44e-12 7.54e-12 8.64e-12 9.72e-12 1.08e-11 1.19e-11 1.29e-11 1.4e-11 1.51e-11 
04 01 03  09 01 09 7.22e-17 3.57e-15 2.54e-14 1.84e-13 5.05e-13 9.39e-13 1.43e-12 1.95e-12 2.45e-12 2.95e-12 3.42e-12 4.26e-12 4.99e-12 5.6e-12 6.12e-12 6.56e-12 6.94e-12 7.27e-12 7.56e-12 7.79e-12 8e-12 
04 01 03  09 01 08 7.29e-18 4.92e-16 4.19e-15 3.91e-14 1.31e-13 2.87e-13 5.04e-13 7.74e-13 1.08e-12 1.42e-12 1.78e-12 2.53e-12 3.29e-12 4.02e-12 4.71e-12 5.35e-12 5.94e-12 6.5e-12 7e-12 7.45e-12 7.86e-12 
04 01 03  10 01 10 2.03e-18 2.92e-16 3.56e-15 4.48e-14 1.62e-13 3.54e-13 6.02e-13 8.85e-13 1.19e-12 1.5e-12 1.81e-12 2.43e-12 3.01e-12 3.57e-12 4.1e-12 4.61e-12 5.12e-12 5.6e-12 6.07e-12 6.55e-12 7.01e-12 
04 01 03  10 01 09 1.15e-19 2.91e-17 4.87e-16 8.87e-15 4.06e-14 1.04e-13 2.02e-13 3.28e-13 4.78e-13 6.49e-13 8.27e-13 1.22e-12 1.65e-12 2.09e-12 2.55e-12 3.02e-12 3.51e-12 4.02e-12 4.54e-12 5.07e-12 5.62e-12 
04 01 03  11 01 11 2.92e-20 1.48e-17 3.36e-16 7.81e-15 3.87e-14 1.03e-13 2.02e-13 3.31e-13 4.87e-13 6.63e-13 8.56e-13 1.28e-12 1.75e-12 2.25e-12 2.76e-12 3.29e-12 3.82e-12 4.38e-12 4.92e-12 5.48e-12 6.03e-12 
04 01 03  11 01 10 6.37e-22 5.34e-19 1.64e-17 5.84e-16 4.08e-15 1.45e-14 3.63e-14 7.27e-14 1.26e-13 1.97e-13 2.87e-13 5.17e-13 8.08e-13 1.15e-12 1.53e-12 1.95e-12 2.41e-12 2.88e-12 3.38e-12 3.9e-12 4.44e-12 
04 01 03  12 01 12 1.36e-22 2.55e-19 1.13e-17 5.2e-16 3.69e-15 1.24e-14 2.87e-14 5.34e-14 8.68e-14 1.29e-13 1.78e-13 2.97e-13 4.37e-13 5.93e-13 7.59e-13 9.36e-13 1.11e-12 1.29e-12 1.47e-12 1.65e-12 1.83e-12 
04 01 03  12 01 11 1.99e-23 7.61e-20 4.88e-18 3.37e-16 2.98e-15 1.16e-14 2.94e-14 5.86e-14 1e-13 1.54e-13 2.18e-13 3.77e-13 5.72e-13 7.91e-13 1.03e-12 1.29e-12 1.57e-12 1.85e-12 2.14e-12 2.44e-12 2.76e-12 
04 01 03  03 03 01 1.08e-15 1.49e-14 5.62e-14 2.19e-13 4.45e-13 6.91e-13 9.39e-13 1.18e-12 1.41e-12 1.63e-12 1.83e-12 2.22e-12 2.56e-12 2.87e-12 3.15e-12 3.4e-12 3.63e-12 3.84e-12 4.04e-12 4.22e-12 4.38e-12 
04 01 03  03 03 00 2.1e-15 2.93e-14 1.1e-13 4.15e-13 8.16e-13 1.24e-12 1.64e-12 2.02e-12 2.37e-12 2.69e-12 2.99e-12 3.53e-12 3.99e-12 4.4e-12 4.76e-12 5.07e-12 5.36e-12 5.65e-12 5.85e-12 6.1e-12 6.27e-12 
04 01 03  04 03 02 1.71e-16 3.94e-15 1.98e-14 1.08e-13 2.65e-13 4.68e-13 6.95e-13 9.29e-13 1.16e-12 1.4e-12 1.62e-12 2.04e-12 2.43e-12 2.78e-12 3.1e-12 3.4e-12 3.67e-12 3.92e-12 4.16e-12 4.37e-12 4.58e-12 
04 01 03  04 03 01 2.13e-16 4.65e-15 2.2e-14 1.08e-13 2.48e-13 4.21e-13 6.13e-13 8.15e-13 1.02e-12 1.22e-12 1.43e-12 1.82e-12 2.2e-12 2.55e-12 2.89e-12 3.21e-12 3.52e-12 3.81e-12 4.1e-12 4.38e-12 4.65e-12 
04 01 03  05 03 03 8.12e-17 3.16e-15 1.98e-14 1.26e-13 3.28e-13 5.92e-13 8.93e-13 1.21e-12 1.54e-12 1.87e-12 2.2e-12 2.84e-12 3.45e-12 4.02e-12 4.55e-12 5.06e-12 5.52e-12 5.98e-12 6.39e-12 6.79e-12 7.17e-12 
04 01 03  05 03 02 3.46e-17 1.33e-15 8.17e-15 5.03e-14 1.26e-13 2.21e-13 3.25e-13 4.36e-13 5.43e-13 6.51e-13 7.53e-13 9.54e-13 1.14e-12 1.31e-12 1.47e-12 1.62e-12 1.76e-12 1.9e-12 2.03e-12 2.16e-12 2.27e-12 
04 01 03  06 03 04 8.06e-18 6.46e-16 5.76e-15 5.19e-14 1.58e-13 3.08e-13 4.84e-13 6.71e-13 8.57e-13 1.04e-12 1.22e-12 1.54e-12 1.84e-12 2.1e-12 2.33e-12 2.55e-12 2.73e-12 2.91e-12 3.08e-12 3.22e-12 3.37e-12 
04 01 03  06 03 03 1.17e-17 9.09e-16 8.1e-15 7.37e-14 2.25e-13 4.46e-13 7.05e-13 9.82e-13 1.26e-12 1.54e-12 1.8e-12 2.29e-12 2.73e-12 3.12e-12 3.48e-12 3.79e-12 4.08e-12 4.33e-12 4.56e-12 4.79e-12 4.98e-12 
04 01 03  07 03 05 4.01e-19 7.02e-17 9.24e-16 1.22e-14 4.46e-14 9.72e-14 1.65e-13 2.42e-13 3.25e-13 4.1e-13 4.94e-13 6.63e-13 8.26e-13 9.75e-13 1.12e-12 1.25e-12 1.39e-12 1.5e-12 1.62e-12 1.73e-12 1.83e-12 
04 01 03  07 03 04 9.83e-19 1.68e-16 2.18e-15 2.8e-14 9.96e-14 2.13e-13 3.53e-13 5.08e-13 6.71e-13 8.37e-13 9.98e-13 1.32e-12 1.64e-12 1.94e-12 2.24e-12 2.53e-12 2.82e-12 3.11e-12 3.38e-12 3.67e-12 3.94e-12 
04 01 03  08 03 06 2.25e-20 9.92e-18 2.09e-16 4.36e-15 1.98e-14 4.96e-14 9.16e-14 1.42e-13 1.99e-13 2.57e-13 3.21e-13 4.45e-13 5.69e-13 6.94e-13 8.09e-13 9.26e-13 1.04e-12 1.15e-12 1.26e-12 1.37e-12 1.47e-12 
04 01 03  08 03 05 8.15e-20 3.66e-17 7.8e-16 1.69e-14 7.9e-14 2.01e-13 3.77e-13 5.94e-13 8.38e-13 1.1e-12 1.37e-12 1.91e-12 2.45e-12 2.97e-12 3.47e-12 3.95e-12 4.4e-12 4.84e-12 5.27e-12 5.68e-12 6.08e-12 
04 01 03  09 03 07 1.06e-21 1.36e-18 4.94e-17 1.77e-15 1.08e-14 3.16e-14 6.47e-14 1.09e-13 1.6e-13 2.16e-13 2.77e-13 4e-13 5.26e-13 6.48e-13 7.66e-13 8.78e-13 9.91e-13 1.1e-12 1.21e-12 1.31e-12 1.42e-12 
04 01 03  09 03 06 2.95e-21 3.8e-18 1.37e-16 4.99e-15 3.03e-14 9.05e-14 1.88e-13 3.17e-13 4.72e-13 6.46e-13 8.31e-13 1.22e-12 1.62e-12 2.02e-12 2.41e-12 2.78e-12 3.15e-12 3.49e-12 3.84e-12 4.17e-12 4.48e-12 
04 01 03  10 03 08 2.87e-23 1.27e-19 8.51e-18 5.77e-16 4.83e-15 1.73e-14 4.14e-14 7.71e-14 1.24e-13 1.81e-13 2.44e-13 3.88e-13 5.43e-13 7.08e-13 8.71e-13 1.03e-12 1.19e-12 1.34e-12 1.49e-12 1.62e-12 1.76e-12 
04 01 03  10 03 07 8.71e-23 3.81e-19 2.52e-17 1.68e-15 1.39e-14 4.95e-14 1.17e-13 2.16e-13 3.45e-13 4.99e-13 6.72e-13 1.06e-12 1.48e-12 1.91e-12 2.35e-12 2.79e-12 3.22e-12 3.64e-12 4.05e-12 4.47e-12 4.86e-12 
05 01 05  01 01 01 3.36e-12 3.19e-12 3.1e-12 3.05e-12 3.11e-12 3.2e-12 3.31e-12 3.43e-12 3.54e-12 3.65e-12 3.75e-12 3.94e-12 4.1e-12 4.24e-12 4.36e-12 4.46e-12 4.54e-12 4.61e-12 4.66e-12 4.7e-12 4.72e-12 
05 01 05  01 01 00 1.07e-11 1.05e-11 1.05e-11 1.04e-11 1.03e-11 1.03e-11 1.02e-11 1.01e-11 1.01e-11 1e-11 1e-11 9.96e-12 9.91e-12 9.88e-12 9.84e-12 9.8e-12 9.76e-12 9.71e-12 9.66e-12 9.6e-12 9.53e-12 
05 01 05  02 01 02 8.85e-12 8.5e-12 8.35e-12 8.41e-12 8.69e-12 9.06e-12 9.43e-12 9.77e-12 1.01e-11 1.04e-11 1.06e-11 1.1e-11 1.14e-11 1.16e-11 1.19e-11 1.2e-11 1.22e-11 1.23e-11 1.24e-11 1.24e-11 1.25e-11 
05 01 05  02 01 01 7.38e-12 6.98e-12 6.73e-12 6.5e-12 6.47e-12 6.53e-12 6.63e-12 6.74e-12 6.85e-12 6.97e-12 7.07e-12 7.27e-12 7.45e-12 7.6e-12 7.74e-12 7.85e-12 7.95e-12 8.03e-12 8.09e-12 8.14e-12 8.17e-12 
05 01 05  03 01 03 8.31e-12 8.56e-12 8.96e-12 9.94e-12 1.1e-11 1.2e-11 1.29e-11 1.38e-11 1.46e-11 1.53e-11 1.6e-11 1.72e-11 1.82e-11 1.91e-11 1.99e-11 2.05e-11 2.12e-11 2.17e-11 2.22e-11 2.26e-11 2.3e-11 
05 01 05  03 01 02 1.58e-11 1.54e-11 1.52e-11 1.5e-11 1.5e-11 1.51e-11 1.52e-11 1.54e-11 1.55e-11 1.57e-11 1.58e-11 1.61e-11 1.63e-11 1.65e-11 1.67e-11 1.68e-11 1.7e-11 1.7e-11 1.71e-11 1.71e-11 1.72e-11 
05 01 05  04 01 04 4.6e-11 4.66e-11 4.7e-11 4.78e-11 4.82e-11 4.85e-11 4.87e-11 4.89e-11 4.9e-11 4.91e-11 4.92e-11 4.93e-11 4.94e-11 4.94e-11 4.94e-11 4.94e-11 4.94e-11 4.93e-11 4.92e-11 4.91e-11 4.89e-11 
05 01 05  04 01 03 1.29e-11 1.28e-11 1.27e-11 1.28e-11 1.29e-11 1.31e-11 1.33e-11 1.34e-11 1.36e-11 1.37e-11 1.39e-11 1.41e-11 1.43e-11 1.45e-11 1.46e-11 1.47e-11 1.48e-11 1.49e-11 1.5e-11 1.51e-11 1.51e-11 
05 01 05  05 01 05 0 0 0 0 0 0 0 0 0 0 0 0 0 0 0 0 0 0 0 0 0 
05 01 05  05 01 04 8.61e-12 9.12e-12 9.16e-12 8.99e-12 8.83e-12 8.75e-12 8.75e-12 8.79e-12 8.87e-12 8.98e-12 9.1e-12 9.37e-12 9.67e-12 9.98e-12 1.02e-11 1.05e-11 1.08e-11 1.1e-11 1.12e-11 1.16e-11 1.18e-11 
05 01 05  06 01 06 7.1e-12 1.4e-11 1.99e-11 2.81e-11 3.35e-11 3.71e-11 3.97e-11 4.17e-11 4.32e-11 4.44e-11 4.54e-11 4.69e-11 4.81e-11 4.88e-11 4.95e-11 5.01e-11 5.04e-11 5.07e-11 5.08e-11 5.09e-11 5.09e-11 
05 01 05  06 01 05 1.27e-12 2.77e-12 4.04e-12 5.83e-12 7.06e-12 8.01e-12 8.78e-12 9.49e-12 1.02e-11 1.08e-11 1.13e-11 1.24e-11 1.33e-11 1.42e-11 1.5e-11 1.57e-11 1.64e-11 1.71e-11 1.78e-11 1.84e-11 1.9e-11 
05 01 05  07 01 07 1.26e-13 5.62e-13 1.2e-12 2.69e-12 4.22e-12 5.72e-12 7.21e-12 8.66e-12 1.01e-11 1.15e-11 1.28e-11 1.53e-11 1.76e-11 1.97e-11 2.17e-11 2.34e-11 2.51e-11 2.66e-11 2.79e-11 2.91e-11 3.03e-11 
05 01 05  07 01 06 5.09e-14 2.61e-13 5.85e-13 1.3e-12 1.94e-12 2.48e-12 2.94e-12 3.34e-12 3.71e-12 4.06e-12 4.37e-12 4.98e-12 5.55e-12 6.09e-12 6.62e-12 7.12e-12 7.6e-12 8.07e-12 8.53e-12 8.97e-12 9.41e-12 
05 01 05  08 01 08 8.45e-15 8.65e-14 2.79e-13 9.25e-13 1.75e-12 2.63e-12 3.52e-12 4.39e-12 5.23e-12 6.03e-12 6.78e-12 8.14e-12 9.31e-12 1.03e-11 1.12e-11 1.19e-11 1.25e-11 1.3e-11 1.34e-11 1.37e-11 1.4e-11 
05 01 05  08 01 07 3.07e-15 4.21e-14 1.55e-13 5.76e-13 1.12e-12 1.68e-12 2.23e-12 2.75e-12 3.23e-12 3.69e-12 4.13e-12 4.92e-12 5.66e-12 6.34e-12 6.98e-12 7.6e-12 8.2e-12 8.78e-12 9.35e-12 9.92e-12 1.05e-11 
05 01 05  09 01 09 2.91e-16 8.42e-15 4.5e-14 2.44e-13 5.83e-13 1e-12 1.46e-12 1.95e-12 2.44e-12 2.93e-12 3.44e-12 4.42e-12 5.39e-12 6.35e-12 7.31e-12 8.26e-12 9.21e-12 1.02e-11 1.11e-11 1.2e-11 1.29e-11 
05 01 05  09 01 08 4.42e-17 1.81e-15 1.2e-14 8.24e-14 2.25e-13 4.23e-13 6.57e-13 9.13e-13 1.18e-12 1.46e-12 1.73e-12 2.29e-12 2.83e-12 3.36e-12 3.87e-12 4.36e-12 4.83e-12 5.29e-12 5.73e-12 6.17e-12 6.58e-12 
05 01 05  10 01 10 9.5e-18 8.26e-16 7.75e-15 7.35e-14 2.31e-13 4.68e-13 7.61e-13 1.09e-12 1.45e-12 1.83e-12 2.22e-12 3.02e-12 3.83e-12 4.64e-12 5.45e-12 6.26e-12 7.05e-12 7.85e-12 8.64e-12 9.44e-12 1.02e-11 
05 01 05  10 01 09 7.58e-19 1.12e-16 1.41e-15 1.88e-14 7.2e-14 1.68e-13 3e-13 4.62e-13 6.46e-13 8.45e-13 1.06e-12 1.49e-12 1.92e-12 2.35e-12 2.76e-12 3.16e-12 3.54e-12 3.91e-12 4.25e-12 4.58e-12 4.91e-12 
05 01 05  11 01 11 1.3e-19 4.01e-17 7.09e-16 1.27e-14 5.43e-14 1.3e-13 2.34e-13 3.59e-13 4.93e-13 6.38e-13 7.84e-13 1.09e-12 1.41e-12 1.75e-12 2.11e-12 2.49e-12 2.9e-12 3.33e-12 3.78e-12 4.27e-12 4.78e-12 
05 01 05  11 01 10 5.01e-21 2.59e-18 6.16e-17 1.61e-15 8.88e-15 2.6e-14 5.51e-14 9.68e-14 1.5e-13 2.15e-13 2.89e-13 4.6e-13 6.57e-13 8.74e-13 1.11e-12 1.35e-12 1.59e-12 1.86e-12 2.11e-12 2.39e-12 2.66e-12 
05 01 05  12 01 12 7.45e-22 8.79e-19 3.13e-17 1.18e-15 7.63e-15 2.4e-14 5.24e-14 9.31e-14 1.45e-13 2.06e-13 2.76e-13 4.36e-13 6.11e-13 8.05e-13 1.01e-12 1.22e-12 1.44e-12 1.67e-12 1.89e-12 2.13e-12 2.37e-12 
05 01 05  12 01 11 5.32e-23 1.28e-19 6.66e-18 3.89e-16 3.31e-15 1.28e-14 3.3e-14 6.68e-14 1.15e-13 1.8e-13 2.57e-13 4.51e-13 6.81e-13 9.45e-13 1.23e-12 1.53e-12 1.83e-12 2.14e-12 2.46e-12 2.77e-12 3.1e-12 
05 01 05  03 03 01 4.05e-15 3.34e-14 9.63e-14 2.82e-13 4.92e-13 6.92e-13 8.75e-13 1.04e-12 1.18e-12 1.31e-12 1.42e-12 1.61e-12 1.77e-12 1.9e-12 2.01e-12 2.09e-12 2.17e-12 2.23e-12 2.28e-12 2.33e-12 2.37e-12 
05 01 05  03 03 00 4.85e-15 4.14e-14 1.21e-13 3.58e-13 6.2e-13 8.7e-13 1.1e-12 1.3e-12 1.48e-12 1.65e-12 1.8e-12 2.07e-12 2.32e-12 2.54e-12 2.75e-12 2.95e-12 3.15e-12 3.35e-12 3.55e-12 3.74e-12 3.94e-12 
05 01 05  04 03 02 1.15e-15 1.52e-14 5.62e-14 2.16e-13 4.41e-13 6.96e-13 9.6e-13 1.22e-12 1.48e-12 1.73e-12 1.96e-12 2.4e-12 2.79e-12 3.14e-12 3.46e-12 3.75e-12 4.01e-12 4.25e-12 4.46e-12 4.67e-12 4.86e-12 
05 01 05  04 03 01 1.3e-15 1.75e-14 6.64e-14 2.65e-13 5.48e-13 8.66e-13 1.19e-12 1.49e-12 1.79e-12 2.06e-12 2.31e-12 2.75e-12 3.13e-12 3.46e-12 3.75e-12 3.99e-12 4.2e-12 4.39e-12 4.55e-12 4.69e-12 4.81e-12 
05 01 05  05 03 03 1.35e-16 3.41e-15 1.74e-14 9.22e-14 2.22e-13 3.84e-13 5.68e-13 7.59e-13 9.55e-13 1.15e-12 1.34e-12 1.71e-12 2.06e-12 2.37e-12 2.66e-12 2.94e-12 3.19e-12 3.43e-12 3.65e-12 3.87e-12 4.07e-12 
05 01 05  05 03 02 4.56e-16 1.12e-14 5.61e-14 2.86e-13 6.59e-13 1.11e-12 1.58e-12 2.06e-12 2.53e-12 2.97e-12 3.4e-12 4.17e-12 4.85e-12 5.45e-12 5.98e-12 6.44e-12 6.85e-12 7.17e-12 7.47e-12 7.74e-12 7.99e-12 
05 01 05  06 03 04 2.26e-17 1.12e-15 7.89e-15 5.66e-14 1.55e-13 2.89e-13 4.43e-13 6.07e-13 7.73e-13 9.35e-13 1.09e-12 1.38e-12 1.62e-12 1.83e-12 2.01e-12 2.16e-12 2.28e-12 2.4e-12 2.49e-12 2.58e-12 2.65e-12 
05 01 05  06 03 03 6.77e-17 3.36e-15 2.39e-14 1.77e-13 4.98e-13 9.5e-13 1.48e-12 2.05e-12 2.64e-12 3.22e-12 3.78e-12 4.86e-12 5.79e-12 6.6e-12 7.34e-12 7.97e-12 8.54e-12 9e-12 9.42e-12 9.81e-12 1.02e-11 
05 01 05  07 03 05 2.85e-18 3.01e-16 3.08e-15 3.13e-14 9.98e-14 2.01e-13 3.2e-13 4.5e-13 5.82e-13 7.17e-13 8.49e-13 1.11e-12 1.36e-12 1.6e-12 1.84e-12 2.06e-12 2.29e-12 2.5e-12 2.71e-12 2.91e-12 3.11e-12 
05 01 05  07 03 04 3.88e-18 4.23e-16 4.43e-15 4.68e-14 1.53e-13 3.1e-13 5e-13 7.04e-13 9.15e-13 1.13e-12 1.34e-12 1.74e-12 2.13e-12 2.49e-12 2.83e-12 3.16e-12 3.46e-12 3.75e-12 4.01e-12 4.27e-12 4.5e-12 
05 01 05  08 03 06 2.33e-19 6.37e-17 1.05e-15 1.74e-14 7.12e-14 1.67e-13 2.99e-13 4.54e-13 6.27e-13 8.1e-13 9.97e-13 1.38e-12 1.77e-12 2.15e-12 2.53e-12 2.9e-12 3.26e-12 3.62e-12 3.98e-12 4.33e-12 4.68e-12 
05 01 05  08 03 05 1.48e-19 4.21e-17 7.21e-16 1.27e-14 5.47e-14 1.32e-13 2.4e-13 3.67e-13 5.08e-13 6.57e-13 8.04e-13 1.1e-12 1.38e-12 1.64e-12 1.87e-12 2.08e-12 2.27e-12 2.45e-12 2.6e-12 2.74e-12 2.87e-12 
05 01 05  09 03 07 9.67e-21 7.7e-18 2.19e-16 6.29e-15 3.42e-14 9.56e-14 1.92e-13 3.17e-13 4.66e-13 6.33e-13 8.14e-13 1.2e-12 1.6e-12 2e-12 2.39e-12 2.79e-12 3.17e-12 3.54e-12 3.89e-12 4.24e-12 4.58e-12 
05 01 05  09 03 06 3.82e-21 3.08e-18 8.9e-17 2.66e-15 1.48e-14 4.2e-14 8.45e-14 1.39e-13 2.05e-13 2.77e-13 3.5e-13 5.06e-13 6.63e-13 8.17e-13 9.62e-13 1.11e-12 1.25e-12 1.39e-12 1.52e-12 1.66e-12 1.79e-12 
05 01 05  10 03 08 2.1e-22 5.83e-19 3.09e-17 1.67e-15 1.24e-14 4.18e-14 9.42e-14 1.7e-13 2.67e-13 3.81e-13 5.1e-13 8.03e-13 1.13e-12 1.47e-12 1.83e-12 2.22e-12 2.6e-12 3e-12 3.39e-12 3.81e-12 4.22e-12 
05 01 05  10 03 07 1.48e-22 3.94e-19 2.02e-17 1.05e-15 7.63e-15 2.55e-14 5.74e-14 1.04e-13 1.62e-13 2.32e-13 3.09e-13 4.77e-13 6.52e-13 8.27e-13 9.94e-13 1.15e-12 1.29e-12 1.42e-12 1.53e-12 1.65e-12 1.73e-12 
05 01 04  01 01 01 5.99e-13 5.98e-13 6.23e-13 7.29e-13 8.81e-13 1.06e-12 1.25e-12 1.44e-12 1.62e-12 1.81e-12 1.98e-12 2.31e-12 2.59e-12 2.85e-12 3.06e-12 3.25e-12 3.41e-12 3.54e-12 3.65e-12 3.74e-12 3.81e-12 
05 01 04  01 01 00 2.06e-12 1.99e-12 1.99e-12 2.09e-12 2.26e-12 2.46e-12 2.67e-12 2.88e-12 3.08e-12 3.28e-12 3.47e-12 3.84e-12 4.2e-12 4.56e-12 4.91e-12 5.26e-12 5.61e-12 5.96e-12 6.3e-12 6.65e-12 7e-12 
05 01 04  02 01 02 3.97e-12 3.89e-12 3.87e-12 3.97e-12 4.17e-12 4.41e-12 4.67e-12 4.94e-12 5.21e-12 5.49e-12 5.75e-12 6.28e-12 6.8e-12 7.3e-12 7.8e-12 8.3e-12 8.79e-12 9.27e-12 9.76e-12 1.02e-11 1.07e-11 
05 01 04  02 01 01 4.89e-12 4.78e-12 4.79e-12 4.95e-12 5.19e-12 5.44e-12 5.69e-12 5.93e-12 6.16e-12 6.38e-12 6.58e-12 6.96e-12 7.3e-12 7.6e-12 7.87e-12 8.1e-12 8.31e-12 8.49e-12 8.64e-12 8.77e-12 8.87e-12 
05 01 04  03 01 03 5.14e-12 4.97e-12 4.87e-12 4.82e-12 4.88e-12 5.03e-12 5.21e-12 5.43e-12 5.66e-12 5.91e-12 6.16e-12 6.65e-12 7.11e-12 7.54e-12 7.92e-12 8.26e-12 8.55e-12 8.81e-12 9.03e-12 9.21e-12 9.36e-12 
05 01 04  03 01 02 1.82e-11 1.72e-11 1.66e-11 1.64e-11 1.68e-11 1.74e-11 1.82e-11 1.9e-11 1.98e-11 2.06e-11 2.13e-11 2.27e-11 2.4e-11 2.5e-11 2.6e-11 2.68e-11 2.75e-11 2.81e-11 2.85e-11 2.9e-11 2.93e-11 
05 01 04  04 01 04 1.35e-11 1.26e-11 1.2e-11 1.14e-11 1.13e-11 1.15e-11 1.18e-11 1.21e-11 1.26e-11 1.3e-11 1.34e-11 1.43e-11 1.51e-11 1.58e-11 1.66e-11 1.72e-11 1.78e-11 1.84e-11 1.89e-11 1.94e-11 1.99e-11 
05 01 04  04 01 03 5.29e-11 5.15e-11 5.05e-11 4.9e-11 4.81e-11 4.74e-11 4.68e-11 4.64e-11 4.61e-11 4.58e-11 4.56e-11 4.53e-11 4.51e-11 4.49e-11 4.48e-11 4.47e-11 4.46e-11 4.44e-11 4.43e-11 4.42e-11 4.4e-11 
05 01 04  05 01 05 1.22e-11 1.15e-11 1.09e-11 1.01e-11 9.63e-12 9.38e-12 9.27e-12 9.24e-12 9.27e-12 9.33e-12 9.42e-12 9.65e-12 9.91e-12 1.02e-11 1.04e-11 1.07e-11 1.1e-11 1.12e-11 1.14e-11 1.17e-11 1.19e-11 
05 01 04  05 01 04 0 0 0 0 0 0 0 0 0 0 0 0 0 0 0 0 0 0 0 0 0 
05 01 04  06 01 06 2.69e-12 4.67e-12 6.12e-12 8.03e-12 9.32e-12 1.02e-11 1.1e-11 1.15e-11 1.21e-11 1.24e-11 1.29e-11 1.35e-11 1.39e-11 1.43e-11 1.46e-11 1.48e-11 1.5e-11 1.52e-11 1.53e-11 1.54e-11 1.54e-11 
05 01 04  06 01 05 7.36e-12 1.49e-11 2.11e-11 2.97e-11 3.51e-11 3.87e-11 4.13e-11 4.32e-11 4.47e-11 4.59e-11 4.69e-11 4.84e-11 4.96e-11 5.05e-11 5.11e-11 5.16e-11 5.19e-11 5.23e-11 5.25e-11 5.26e-11 5.27e-11 
05 01 04  07 01 07 3.32e-13 1.26e-12 2.44e-12 4.78e-12 6.7e-12 8.26e-12 9.59e-12 1.06e-11 1.15e-11 1.24e-11 1.3e-11 1.42e-11 1.52e-11 1.6e-11 1.68e-11 1.74e-11 1.8e-11 1.87e-11 1.91e-11 1.96e-11 2.01e-11 
05 01 04  07 01 06 2.88e-13 1.31e-12 2.78e-12 5.97e-12 8.82e-12 1.14e-11 1.36e-11 1.56e-11 1.75e-11 1.92e-11 2.07e-11 2.35e-11 2.59e-11 2.81e-11 2.99e-11 3.15e-11 3.29e-11 3.42e-11 3.52e-11 3.61e-11 3.7e-11 
05 01 04  08 01 08 1.53e-14 1.38e-13 4.13e-13 1.22e-12 2.1e-12 2.91e-12 3.63e-12 4.26e-12 4.82e-12 5.32e-12 5.76e-12 6.53e-12 7.18e-12 7.73e-12 8.23e-12 8.67e-12 9.06e-12 9.41e-12 9.74e-12 1e-11 1.03e-11 
05 01 04  08 01 07 8.28e-15 9.96e-14 3.47e-13 1.23e-12 2.37e-12 3.56e-12 4.72e-12 5.81e-12 6.83e-12 7.79e-12 8.69e-12 1.03e-11 1.17e-11 1.28e-11 1.38e-11 1.47e-11 1.54e-11 1.6e-11 1.66e-11 1.7e-11 1.74e-11 
05 01 04  09 01 09 6.53e-16 1.82e-14 9.72e-14 5.31e-13 1.26e-12 2.13e-12 3.03e-12 3.93e-12 4.78e-12 5.58e-12 6.32e-12 7.64e-12 8.76e-12 9.74e-12 1.06e-11 1.13e-11 1.2e-11 1.26e-11 1.32e-11 1.36e-11 1.41e-11 
05 01 04  09 01 08 1.28e-16 4.58e-15 2.82e-14 1.82e-13 4.78e-13 8.69e-13 1.32e-12 1.79e-12 2.27e-12 2.76e-12 3.25e-12 4.24e-12 5.24e-12 6.25e-12 7.27e-12 8.29e-12 9.33e-12 1.04e-11 1.14e-11 1.25e-11 1.36e-11 
05 01 04  10 01 10 1.63e-17 1.26e-15 1.11e-14 9.93e-14 2.99e-13 5.81e-13 9.08e-13 1.25e-12 1.59e-12 1.92e-12 2.24e-12 2.83e-12 3.35e-12 3.82e-12 4.24e-12 4.63e-12 4.97e-12 5.29e-12 5.6e-12 5.88e-12 6.14e-12 
05 01 04  10 01 09 9.62e-19 1.26e-16 1.5e-15 1.97e-14 7.85e-14 1.9e-13 3.59e-13 5.82e-13 8.51e-13 1.15e-12 1.5e-12 2.24e-12 3.02e-12 3.82e-12 4.61e-12 5.38e-12 6.13e-12 6.83e-12 7.5e-12 8.15e-12 8.75e-12 
05 01 04  11 01 11 2.02e-19 5.74e-17 9.79e-16 1.72e-14 7.43e-14 1.81e-13 3.32e-13 5.17e-13 7.25e-13 9.48e-13 1.18e-12 1.65e-12 2.11e-12 2.56e-12 2.98e-12 3.37e-12 3.76e-12 4.11e-12 4.45e-12 4.76e-12 5.06e-12 
05 01 04  11 01 10 1.97e-20 9.05e-18 2.02e-16 4.93e-15 2.62e-14 7.47e-14 1.55e-13 2.62e-13 3.98e-13 5.51e-13 7.23e-13 1.1e-12 1.52e-12 1.96e-12 2.41e-12 2.88e-12 3.37e-12 3.86e-12 4.37e-12 4.89e-12 5.41e-12 
05 01 04  12 01 12 2.41e-21 2.5e-18 8.21e-17 2.84e-15 1.72e-14 5.18e-14 1.1e-13 1.92e-13 2.92e-13 4.11e-13 5.43e-13 8.46e-13 1.18e-12 1.55e-12 1.93e-12 2.34e-12 2.76e-12 3.19e-12 3.64e-12 4.09e-12 4.56e-12 
05 01 04  12 01 11 6.81e-23 1.39e-19 6.52e-18 3.31e-16 2.6e-15 9.6e-15 2.41e-14 4.82e-14 8.31e-14 1.29e-13 1.87e-13 3.33e-13 5.15e-13 7.3e-13 9.7e-13 1.22e-12 1.5e-12 1.79e-12 2.09e-12 2.4e-12 2.73e-12 
05 01 04  03 03 01 1.23e-14 9.41e-14 2.6e-13 7.3e-13 1.24e-12 1.71e-12 2.13e-12 2.51e-12 2.84e-12 3.15e-12 3.42e-12 3.9e-12 4.28e-12 4.65e-12 4.94e-12 5.21e-12 5.45e-12 5.62e-12 5.84e-12 6.04e-12 6.18e-12 
05 01 04  03 03 00 6.82e-15 4.95e-14 1.34e-13 3.7e-13 6.32e-13 8.88e-13 1.13e-12 1.34e-12 1.55e-12 1.73e-12 1.9e-12 2.2e-12 2.47e-12 2.7e-12 2.9e-12 3.08e-12 3.23e-12 3.38e-12 3.5e-12 3.6e-12 3.7e-12 
05 01 04  04 03 02 9.08e-16 1.16e-14 4.27e-14 1.62e-13 3.29e-13 5.13e-13 6.98e-13 8.8e-13 1.05e-12 1.22e-12 1.37e-12 1.66e-12 1.9e-12 2.13e-12 2.32e-12 2.51e-12 2.68e-12 2.83e-12 2.98e-12 3.12e-12 3.25e-12 
05 01 04  04 03 01 2.04e-15 2.41e-14 8.34e-14 2.99e-13 5.82e-13 8.87e-13 1.19e-12 1.48e-12 1.77e-12 2.03e-12 2.28e-12 2.72e-12 3.11e-12 3.46e-12 3.76e-12 4.03e-12 4.27e-12 4.49e-12 4.68e-12 4.86e-12 5.03e-12 
05 01 04  05 03 03 1.95e-16 4.43e-15 2.18e-14 1.13e-13 2.69e-13 4.64e-13 6.81e-13 9.04e-13 1.13e-12 1.35e-12 1.56e-12 1.97e-12 2.35e-12 2.7e-12 3.03e-12 3.33e-12 3.62e-12 3.9e-12 4.16e-12 4.42e-12 4.66e-12 
05 01 04  05 03 02 3.18e-16 6.84e-15 3.18e-14 1.5e-13 3.32e-13 5.43e-13 7.62e-13 9.82e-13 1.2e-12 1.4e-12 1.6e-12 1.97e-12 2.3e-12 2.62e-12 2.91e-12 3.17e-12 3.42e-12 3.66e-12 3.89e-12 4.1e-12 4.3e-12 
05 01 04  06 03 04 7.33e-17 3.18e-15 2.11e-14 1.43e-13 3.78e-13 6.89e-13 1.04e-12 1.4e-12 1.77e-12 2.12e-12 2.47e-12 3.13e-12 3.73e-12 4.28e-12 4.79e-12 5.27e-12 5.72e-12 6.14e-12 6.53e-12 6.9e-12 7.25e-12 
05 01 04  06 03 03 2.86e-17 1.25e-15 8.33e-15 5.71e-14 1.52e-13 2.79e-13 4.23e-13 5.7e-13 7.18e-13 8.64e-13 1.01e-12 1.27e-12 1.51e-12 1.73e-12 1.93e-12 2.12e-12 2.31e-12 2.48e-12 2.66e-12 2.83e-12 3e-12 
05 01 04  07 03 05 3.55e-18 3.39e-16 3.31e-15 3.22e-14 1.01e-13 2.01e-13 3.18e-13 4.45e-13 5.74e-13 7.07e-13 8.34e-13 1.09e-12 1.33e-12 1.58e-12 1.81e-12 2.04e-12 2.27e-12 2.49e-12 2.72e-12 2.95e-12 3.17e-12 
05 01 04  07 03 04 5.89e-18 5.62e-16 5.49e-15 5.39e-14 1.7e-13 3.38e-13 5.37e-13 7.49e-13 9.65e-13 1.18e-12 1.39e-12 1.79e-12 2.17e-12 2.52e-12 2.85e-12 3.16e-12 3.45e-12 3.72e-12 3.99e-12 4.23e-12 4.46e-12 
05 01 04  08 03 06 1.73e-19 4.19e-17 6.53e-16 1.02e-14 4.03e-14 9.35e-14 1.65e-13 2.49e-13 3.42e-13 4.38e-13 5.38e-13 7.37e-13 9.31e-13 1.11e-12 1.28e-12 1.44e-12 1.59e-12 1.72e-12 1.84e-12 1.96e-12 2.06e-12 
05 01 04  08 03 05 3.24e-19 7.84e-17 1.22e-15 1.89e-14 7.48e-14 1.71e-13 2.98e-13 4.44e-13 6e-13 7.64e-13 9.27e-13 1.25e-12 1.55e-12 1.85e-12 2.13e-12 2.41e-12 2.68e-12 2.94e-12 3.2e-12 3.46e-12 3.72e-12 
05 01 04  09 03 07 6.71e-21 4.62e-18 1.21e-16 3.15e-15 1.59e-14 4.21e-14 8.06e-14 1.29e-13 1.83e-13 2.41e-13 3.03e-13 4.27e-13 5.57e-13 6.84e-13 8.14e-13 9.47e-13 1.08e-12 1.21e-12 1.35e-12 1.49e-12 1.63e-12 
05 01 04  09 03 06 2.06e-20 1.46e-17 3.92e-16 1.07e-14 5.63e-14 1.54e-13 3.03e-13 4.94e-13 7.14e-13 9.55e-13 1.21e-12 1.72e-12 2.24e-12 2.73e-12 3.19e-12 3.62e-12 4.03e-12 4.4e-12 4.76e-12 5.08e-12 5.39e-12 
05 01 04  10 03 08 1.61e-22 3.82e-19 1.85e-17 8.96e-16 6.26e-15 2.02e-14 4.46e-14 7.89e-14 1.23e-13 1.72e-13 2.28e-13 3.5e-13 4.8e-13 6.08e-13 7.41e-13 8.67e-13 9.96e-13 1.11e-12 1.23e-12 1.34e-12 1.44e-12 
05 01 04  10 03 07 6.37e-22 1.5e-18 7.21e-17 3.46e-15 2.4e-14 7.7e-14 1.69e-13 2.98e-13 4.59e-13 6.43e-13 8.48e-13 1.3e-12 1.77e-12 2.26e-12 2.74e-12 3.23e-12 3.69e-12 4.16e-12 4.6e-12 5.04e-12 5.46e-12 
06 01 06  01 01 01 6.57e-12 6.31e-12 6.18e-12 6.06e-12 6.04e-12 6.05e-12 6.09e-12 6.13e-12 6.19e-12 6.24e-12 6.29e-12 6.4e-12 6.49e-12 6.57e-12 6.63e-12 6.69e-12 6.73e-12 6.76e-12 6.79e-12 6.8e-12 6.8e-12 
06 01 06  01 01 00 2.25e-12 2.16e-12 2.11e-12 2.04e-12 2e-12 1.98e-12 1.97e-12 1.97e-12 1.98e-12 1.99e-12 2.01e-12 2.05e-12 2.09e-12 2.13e-12 2.17e-12 2.21e-12 2.25e-12 2.28e-12 2.3e-12 2.32e-12 2.34e-12 
06 01 06  02 01 02 4.95e-12 4.63e-12 4.42e-12 4.21e-12 4.16e-12 4.18e-12 4.25e-12 4.34e-12 4.44e-12 4.55e-12 4.67e-12 4.91e-12 5.15e-12 5.38e-12 5.6e-12 5.82e-12 6.02e-12 6.21e-12 6.39e-12 6.56e-12 6.72e-12 
06 01 06  02 01 01 1.18e-11 1.14e-11 1.13e-11 1.12e-11 1.11e-11 1.11e-11 1.11e-11 1.11e-11 1.12e-11 1.12e-11 1.12e-11 1.13e-11 1.14e-11 1.15e-11 1.15e-11 1.16e-11 1.16e-11 1.16e-11 1.16e-11 1.16e-11 1.16e-11 
06 01 06  03 01 03 8.07e-12 7.89e-12 7.9e-12 8.15e-12 8.54e-12 8.98e-12 9.42e-12 9.85e-12 1.03e-11 1.06e-11 1.1e-11 1.16e-11 1.21e-11 1.25e-11 1.29e-11 1.32e-11 1.35e-11 1.38e-11 1.4e-11 1.42e-11 1.44e-11 
06 01 06  03 01 02 7.64e-12 7.26e-12 7.02e-12 6.77e-12 6.67e-12 6.66e-12 6.69e-12 6.75e-12 6.82e-12 6.89e-12 6.96e-12 7.1e-12 7.23e-12 7.34e-12 7.45e-12 7.54e-12 7.63e-12 7.7e-12 7.76e-12 7.81e-12 7.85e-12 
06 01 06  04 01 04 7.47e-12 7.7e-12 8.07e-12 9.03e-12 1.01e-11 1.12e-11 1.23e-11 1.34e-11 1.43e-11 1.53e-11 1.61e-11 1.77e-11 1.91e-11 2.03e-11 2.13e-11 2.22e-11 2.31e-11 2.38e-11 2.44e-11 2.5e-11 2.55e-11 
06 01 06  04 01 03 1.5e-11 1.47e-11 1.46e-11 1.45e-11 1.46e-11 1.47e-11 1.49e-11 1.5e-11 1.52e-11 1.54e-11 1.55e-11 1.58e-11 1.61e-11 1.63e-11 1.65e-11 1.67e-11 1.69e-11 1.7e-11 1.72e-11 1.73e-11 1.75e-11 
06 01 06  05 01 05 4.56e-11 4.59e-11 4.63e-11 4.68e-11 4.7e-11 4.71e-11 4.71e-11 4.71e-11 4.71e-11 4.71e-11 4.7e-11 4.7e-11 4.7e-11 4.69e-11 4.69e-11 4.69e-11 4.68e-11 4.67e-11 4.65e-11 4.63e-11 4.61e-11 
06 01 06  05 01 04 1.22e-11 1.21e-11 1.2e-11 1.19e-11 1.2e-11 1.21e-11 1.23e-11 1.24e-11 1.26e-11 1.27e-11 1.29e-11 1.31e-11 1.33e-11 1.34e-11 1.36e-11 1.36e-11 1.37e-11 1.38e-11 1.38e-11 1.38e-11 1.38e-11 
06 01 06  06 01 06 0 0 0 0 0 0 0 0 0 0 0 0 0 0 0 0 0 0 0 0 0 
06 01 06  06 01 05 4.74e-12 5.55e-12 5.95e-12 6.29e-12 6.44e-12 6.52e-12 6.59e-12 6.67e-12 6.75e-12 6.83e-12 6.92e-12 7.11e-12 7.31e-12 7.52e-12 7.74e-12 7.95e-12 8.17e-12 8.39e-12 8.6e-12 8.82e-12 9.03e-12 
06 01 06  07 01 07 5.13e-12 1.13e-11 1.68e-11 2.5e-11 3.04e-11 3.43e-11 3.71e-11 3.93e-11 4.1e-11 4.23e-11 4.35e-11 4.51e-11 4.64e-11 4.73e-11 4.79e-11 4.84e-11 4.87e-11 4.88e-11 4.89e-11 4.89e-11 4.87e-11 
06 01 06  07 01 06 8.17e-13 2.11e-12 3.35e-12 5.24e-12 6.52e-12 7.45e-12 8.24e-12 8.93e-12 9.5e-12 1.01e-11 1.06e-11 1.15e-11 1.24e-11 1.31e-11 1.38e-11 1.44e-11 1.49e-11 1.55e-11 1.59e-11 1.64e-11 1.68e-11 
06 01 06  08 01 08 5.82e-14 3.22e-13 7.74e-13 1.96e-12 3.29e-12 4.66e-12 6.07e-12 7.42e-12 8.82e-12 1.01e-11 1.14e-11 1.4e-11 1.63e-11 1.86e-11 2.06e-11 2.26e-11 2.44e-11 2.62e-11 2.78e-11 2.92e-11 3.06e-11 
06 01 06  08 01 07 2.13e-14 1.46e-13 3.78e-13 9.67e-13 1.54e-12 2.05e-12 2.49e-12 2.88e-12 3.24e-12 3.57e-12 3.88e-12 4.49e-12 5.05e-12 5.6e-12 6.12e-12 6.65e-12 7.16e-12 7.66e-12 8.15e-12 8.63e-12 9.1e-12 
06 01 06  09 01 09 1.92e-15 2.96e-14 1.18e-13 4.92e-13 1.05e-12 1.71e-12 2.41e-12 3.12e-12 3.82e-12 4.51e-12 5.18e-12 6.42e-12 7.54e-12 8.55e-12 9.41e-12 1.02e-11 1.09e-11 1.16e-11 1.21e-11 1.26e-11 1.29e-11 
06 01 06  09 01 08 8.8e-16 1.82e-14 8.37e-14 3.91e-13 8.56e-13 1.38e-12 1.91e-12 2.42e-12 2.91e-12 3.37e-12 3.8e-12 4.59e-12 5.3e-12 5.96e-12 6.56e-12 7.13e-12 7.68e-12 8.2e-12 8.71e-12 9.2e-12 9.69e-12 
06 01 06  10 01 10 4.28e-17 1.87e-15 1.24e-14 8.25e-14 2.19e-13 4.01e-13 6.14e-13 8.52e-13 1.11e-12 1.38e-12 1.68e-12 2.3e-12 2.99e-12 3.72e-12 4.5e-12 5.32e-12 6.17e-12 7.07e-12 7.99e-12 8.93e-12 9.9e-12 
06 01 06  10 01 09 8.12e-18 6e-16 5.25e-15 4.75e-14 1.47e-13 2.95e-13 4.76e-13 6.76e-13 8.88e-13 1.1e-12 1.32e-12 1.73e-12 2.13e-12 2.5e-12 2.85e-12 3.16e-12 3.45e-12 3.72e-12 3.97e-12 4.2e-12 4.41e-12 
06 01 06  11 01 11 1.05e-18 1.67e-16 2.12e-15 2.8e-14 1.05e-13 2.41e-13 4.31e-13 6.65e-13 9.39e-13 1.24e-12 1.57e-12 2.26e-12 3e-12 3.75e-12 4.5e-12 5.25e-12 5.98e-12 6.71e-12 7.42e-12 8.13e-12 8.82e-12 
06 01 06  11 01 10 1.26e-19 3.27e-17 5.44e-16 9.51e-15 4.16e-14 1.03e-13 1.95e-13 3.08e-13 4.39e-13 5.85e-13 7.37e-13 1.06e-12 1.39e-12 1.73e-12 2.06e-12 2.39e-12 2.71e-12 3.04e-12 3.36e-12 3.68e-12 3.99e-12 
06 01 06  12 01 12 1.53e-20 9e-18 2.22e-16 5.68e-15 2.92e-14 7.89e-14 1.55e-13 2.51e-13 3.62e-13 4.87e-13 6.17e-13 8.97e-13 1.2e-12 1.51e-12 1.85e-12 2.2e-12 2.57e-12 2.97e-12 3.38e-12 3.82e-12 4.27e-12 
06 01 06  12 01 11 4.01e-22 4.98e-19 1.87e-17 7.9e-16 5.75e-15 2.03e-14 4.94e-14 9.58e-14 1.6e-13 2.43e-13 3.44e-13 5.85e-13 8.76e-13 1.2e-12 1.54e-12 1.9e-12 2.27e-12 2.64e-12 3.02e-12 3.4e-12 3.77e-12 
06 01 06  03 03 01 4.08e-14 1.79e-13 3.76e-13 7.96e-13 1.17e-12 1.48e-12 1.74e-12 1.97e-12 2.16e-12 2.33e-12 2.48e-12 2.73e-12 2.94e-12 3.11e-12 3.25e-12 3.38e-12 3.49e-12 3.6e-12 3.69e-12 3.78e-12 3.87e-12 
06 01 06  03 03 00 2.78e-14 1.21e-13 2.56e-13 5.58e-13 8.46e-13 1.1e-12 1.32e-12 1.51e-12 1.68e-12 1.82e-12 1.95e-12 2.16e-12 2.33e-12 2.46e-12 2.57e-12 2.66e-12 2.73e-12 2.78e-12 2.82e-12 2.85e-12 2.87e-12 
06 01 06  04 03 02 9.88e-15 6.67e-14 1.76e-13 4.89e-13 8.45e-13 1.2e-12 1.54e-12 1.85e-12 2.14e-12 2.41e-12 2.65e-12 3.07e-12 3.42e-12 3.72e-12 3.97e-12 4.18e-12 4.36e-12 4.5e-12 4.63e-12 4.74e-12 4.82e-12 
06 01 06  04 03 01 5.78e-15 4.22e-14 1.19e-13 3.63e-13 6.64e-13 9.79e-13 1.28e-12 1.58e-12 1.85e-12 2.11e-12 2.34e-12 2.76e-12 3.12e-12 3.44e-12 3.71e-12 3.96e-12 4.19e-12 4.39e-12 4.58e-12 4.75e-12 4.92e-12 
06 01 06  05 03 03 2.02e-15 2.54e-14 9.07e-14 3.34e-13 6.58e-13 1.01e-12 1.36e-12 1.7e-12 2.02e-12 2.33e-12 2.62e-12 3.14e-12 3.6e-12 4e-12 4.35e-12 4.66e-12 4.94e-12 5.18e-12 5.4e-12 5.6e-12 5.77e-12 
06 01 06  05 03 02 1.28e-15 1.6e-14 5.69e-14 2.12e-13 4.34e-13 6.91e-13 9.68e-13 1.25e-12 1.53e-12 1.8e-12 2.06e-12 2.55e-12 2.98e-12 3.35e-12 3.68e-12 3.98e-12 4.24e-12 4.47e-12 4.67e-12 4.86e-12 5.03e-12 
06 01 06  06 03 04 1.86e-16 4.67e-15 2.4e-14 1.27e-13 3.02e-13 5.19e-13 7.57e-13 9.98e-13 1.24e-12 1.48e-12 1.7e-12 2.13e-12 2.52e-12 2.87e-12 3.19e-12 3.49e-12 3.75e-12 4e-12 4.23e-12 4.44e-12 4.64e-12 
06 01 06  06 03 03 5.24e-16 1.32e-14 6.66e-14 3.43e-13 7.98e-13 1.34e-12 1.92e-12 2.49e-12 3.05e-12 3.55e-12 4.03e-12 4.92e-12 5.62e-12 6.18e-12 6.72e-12 7.09e-12 7.47e-12 7.75e-12 8e-12 8.28e-12 8.48e-12 
06 01 06  07 03 05 1.36e-17 7.4e-16 5.49e-15 4.07e-14 1.11e-13 2.04e-13 3.08e-13 4.13e-13 5.2e-13 6.25e-13 7.22e-13 9.08e-13 1.08e-12 1.23e-12 1.38e-12 1.5e-12 1.62e-12 1.73e-12 1.82e-12 1.92e-12 2e-12 
06 01 06  07 03 04 4.23e-17 2.31e-15 1.7e-14 1.26e-13 3.45e-13 6.34e-13 9.56e-13 1.29e-12 1.63e-12 1.96e-12 2.29e-12 2.93e-12 3.53e-12 4.1e-12 4.63e-12 5.13e-12 5.59e-12 6.02e-12 6.42e-12 6.78e-12 7.12e-12 
06 01 06  08 03 06 9.74e-19 1.35e-16 1.6e-15 1.92e-14 6.8e-14 1.48e-13 2.51e-13 3.7e-13 4.99e-13 6.34e-13 7.72e-13 1.05e-12 1.32e-12 1.58e-12 1.84e-12 2.1e-12 2.34e-12 2.59e-12 2.84e-12 3.09e-12 3.33e-12 
06 01 06  08 03 05 1.93e-18 2.75e-16 3.3e-15 4.04e-14 1.43e-13 3.08e-13 5.17e-13 7.49e-13 9.94e-13 1.24e-12 1.49e-12 1.96e-12 2.4e-12 2.8e-12 3.18e-12 3.52e-12 3.84e-12 4.14e-12 4.42e-12 4.68e-12 4.93e-12 
06 01 06  09 03 07 6.28e-20 2.5e-17 4.99e-16 9.9e-15 4.44e-14 1.1e-13 2.03e-13 3.18e-13 4.48e-13 5.9e-13 7.38e-13 1.05e-12 1.36e-12 1.67e-12 1.97e-12 2.26e-12 2.55e-12 2.82e-12 3.09e-12 3.34e-12 3.6e-12 
06 01 06  09 03 06 5.29e-20 2.19e-17 4.52e-16 9.62e-15 4.54e-14 1.17e-13 2.21e-13 3.5e-13 4.97e-13 6.55e-13 8.2e-13 1.15e-12 1.48e-12 1.79e-12 2.09e-12 2.36e-12 2.62e-12 2.87e-12 3.1e-12 3.31e-12 3.51e-12 
06 01 06  10 03 08 1.89e-21 2.58e-18 9.51e-17 3.49e-15 2.11e-14 6.25e-14 1.29e-13 2.19e-13 3.27e-13 4.5e-13 5.82e-13 8.69e-13 1.17e-12 1.48e-12 1.79e-12 2.1e-12 2.41e-12 2.7e-12 3e-12 3.29e-12 3.56e-12 
06 01 06  10 03 07 9.87e-22 1.36e-18 5.08e-17 1.95e-15 1.23e-14 3.82e-14 8.2e-14 1.43e-13 2.18e-13 3.04e-13 3.97e-13 6.01e-13 8.11e-13 1.02e-12 1.22e-12 1.41e-12 1.59e-12 1.76e-12 1.93e-12 2.07e-12 2.21e-12 
06 01 05  01 01 01 6.81e-13 6.69e-13 6.81e-13 7.48e-13 8.52e-13 9.75e-13 1.11e-12 1.24e-12 1.37e-12 1.5e-12 1.62e-12 1.86e-12 2.09e-12 2.32e-12 2.55e-12 2.79e-12 3.03e-12 3.28e-12 3.54e-12 3.81e-12 4.09e-12 
06 01 05  01 01 00 4.94e-13 4.72e-13 4.69e-13 5.04e-13 5.8e-13 6.86e-13 8.11e-13 9.47e-13 1.09e-12 1.23e-12 1.37e-12 1.64e-12 1.89e-12 2.12e-12 2.32e-12 2.5e-12 2.66e-12 2.8e-12 2.93e-12 3.04e-12 3.13e-12 
06 01 05  02 01 02 9.1e-13 9.3e-13 9.74e-13 1.1e-12 1.25e-12 1.41e-12 1.59e-12 1.77e-12 1.95e-12 2.14e-12 2.32e-12 2.67e-12 3e-12 3.31e-12 3.59e-12 3.85e-12 4.08e-12 4.28e-12 4.46e-12 4.62e-12 4.75e-12 
06 01 05  02 01 01 3.09e-12 3.03e-12 3.05e-12 3.18e-12 3.36e-12 3.57e-12 3.78e-12 4e-12 4.22e-12 4.44e-12 4.66e-12 5.09e-12 5.51e-12 5.91e-12 6.29e-12 6.66e-12 7.01e-12 7.34e-12 7.66e-12 7.95e-12 8.24e-12 
06 01 05  03 01 03 4.66e-12 4.51e-12 4.46e-12 4.48e-12 4.6e-12 4.76e-12 4.94e-12 5.14e-12 5.36e-12 5.57e-12 5.79e-12 6.23e-12 6.67e-12 7.11e-12 7.55e-12 8e-12 8.45e-12 8.9e-12 9.36e-12 9.83e-12 1.03e-11 
06 01 05  03 01 02 7.37e-12 7.18e-12 7.16e-12 7.31e-12 7.55e-12 7.82e-12 8.1e-12 8.37e-12 8.63e-12 8.88e-12 9.11e-12 9.52e-12 9.88e-12 1.02e-11 1.05e-11 1.07e-11 1.09e-11 1.11e-11 1.13e-11 1.14e-11 1.15e-11 
06 01 05  04 01 04 5.57e-12 5.36e-12 5.22e-12 5.09e-12 5.06e-12 5.09e-12 5.17e-12 5.28e-12 5.4e-12 5.55e-12 5.7e-12 6.02e-12 6.35e-12 6.67e-12 6.98e-12 7.28e-12 7.55e-12 7.81e-12 8.05e-12 8.27e-12 8.47e-12 
06 01 05  04 01 03 2.18e-11 2.07e-11 2e-11 1.95e-11 1.95e-11 1.99e-11 2.04e-11 2.1e-11 2.16e-11 2.23e-11 2.29e-11 2.41e-11 2.53e-11 2.63e-11 2.72e-11 2.79e-11 2.86e-11 2.92e-11 2.96e-11 3e-11 3.03e-11 
06 01 05  05 01 05 1.33e-11 1.25e-11 1.2e-11 1.14e-11 1.12e-11 1.12e-11 1.13e-11 1.15e-11 1.18e-11 1.21e-11 1.23e-11 1.29e-11 1.35e-11 1.41e-11 1.46e-11 1.51e-11 1.56e-11 1.61e-11 1.66e-11 1.7e-11 1.75e-11 
06 01 05  05 01 04 5.43e-11 5.33e-11 5.26e-11 5.17e-11 5.1e-11 5.05e-11 5.01e-11 4.98e-11 4.96e-11 4.94e-11 4.93e-11 4.91e-11 4.9e-11 4.89e-11 4.88e-11 4.87e-11 4.85e-11 4.84e-11 4.83e-11 4.81e-11 4.79e-11 
06 01 05  06 01 06 7.7e-12 7.67e-12 7.58e-12 7.4e-12 7.27e-12 7.19e-12 7.15e-12 7.15e-12 7.17e-12 7.21e-12 7.26e-12 7.4e-12 7.57e-12 7.75e-12 7.95e-12 8.15e-12 8.35e-12 8.56e-12 8.76e-12 8.97e-12 9.18e-12 
06 01 05  06 01 05 0 0 0 0 0 0 0 0 0 0 0 0 0 0 0 0 0 0 0 0 0 
06 01 05  07 01 07 2.28e-12 4.09e-12 5.46e-12 7.16e-12 8.22e-12 8.96e-12 9.62e-12 1.01e-11 1.05e-11 1.09e-11 1.12e-11 1.16e-11 1.21e-11 1.24e-11 1.28e-11 1.3e-11 1.32e-11 1.33e-11 1.35e-11 1.36e-11 1.38e-11 
06 01 05  07 01 06 4.97e-12 1.14e-11 1.73e-11 2.6e-11 3.18e-11 3.59e-11 3.89e-11 4.12e-11 4.3e-11 4.44e-11 4.56e-11 4.75e-11 4.89e-11 5e-11 5.07e-11 5.12e-11 5.16e-11 5.19e-11 5.21e-11 5.22e-11 5.22e-11 
06 01 05  08 01 08 1.71e-13 7.65e-13 1.63e-12 3.46e-12 5.07e-12 6.43e-12 7.5e-12 8.43e-12 9.22e-12 9.9e-12 1.05e-11 1.15e-11 1.23e-11 1.31e-11 1.36e-11 1.41e-11 1.46e-11 1.49e-11 1.52e-11 1.55e-11 1.58e-11 
06 01 05  08 01 07 1.26e-13 7.5e-13 1.82e-12 4.45e-12 7.06e-12 9.39e-12 1.15e-11 1.34e-11 1.53e-11 1.69e-11 1.85e-11 2.13e-11 2.39e-11 2.62e-11 2.82e-11 3e-11 3.16e-11 3.3e-11 3.43e-11 3.54e-11 3.62e-11 
06 01 05  09 01 09 7.16e-15 9.17e-14 3.27e-13 1.16e-12 2.22e-12 3.31e-12 4.35e-12 5.31e-12 6.15e-12 6.89e-12 7.64e-12 8.75e-12 9.67e-12 1.04e-11 1.09e-11 1.14e-11 1.17e-11 1.2e-11 1.22e-11 1.25e-11 1.26e-11 
06 01 05  09 01 08 2.83e-15 4.99e-14 2.13e-13 9.28e-13 1.99e-12 3.18e-12 4.41e-12 5.64e-12 6.78e-12 7.87e-12 8.85e-12 1.06e-11 1.22e-11 1.34e-11 1.45e-11 1.55e-11 1.63e-11 1.69e-11 1.75e-11 1.8e-11 1.84e-11 
06 01 05  10 01 10 2.25e-16 8.52e-15 5.27e-14 3.29e-13 8.29e-13 1.45e-12 2.1e-12 2.75e-12 3.36e-12 3.93e-12 4.47e-12 5.43e-12 6.27e-12 7.03e-12 7.71e-12 8.33e-12 8.93e-12 9.5e-12 1e-11 1.06e-11 1.11e-11 
06 01 05  10 01 09 2.72e-17 1.75e-15 1.43e-14 1.21e-13 3.63e-13 7.13e-13 1.13e-12 1.6e-12 2.08e-12 2.57e-12 3.07e-12 4.07e-12 5.06e-12 6.05e-12 7.05e-12 8.04e-12 9.05e-12 1.01e-11 1.11e-11 1.22e-11 1.32e-11 
06 01 05  11 01 11 3.39e-18 4.51e-16 5.22e-15 6.08e-14 2.08e-13 4.37e-13 7.19e-13 1.03e-12 1.35e-12 1.67e-12 1.99e-12 2.6e-12 3.18e-12 3.74e-12 4.27e-12 4.79e-12 5.3e-12 5.8e-12 6.29e-12 6.77e-12 7.25e-12 
06 01 05  11 01 10 2.07e-19 4.55e-17 6.98e-16 1.16e-14 5.15e-14 1.33e-13 2.6e-13 4.29e-13 6.34e-13 8.73e-13 1.14e-12 1.72e-12 2.35e-12 3e-12 3.66e-12 4.31e-12 4.95e-12 5.58e-12 6.2e-12 6.8e-12 7.39e-12 
06 01 05  12 01 12 2.64e-20 1.32e-17 3e-16 7.08e-15 3.51e-14 9.32e-14 1.81e-13 2.92e-13 4.2e-13 5.61e-13 7.09e-13 1.02e-12 1.32e-12 1.62e-12 1.91e-12 2.18e-12 2.43e-12 2.67e-12 2.9e-12 3.11e-12 3.3e-12 
06 01 05  12 01 11 1.91e-21 2.01e-18 6.8e-17 2.46e-15 1.57e-14 4.93e-14 1.07e-13 1.9e-13 2.97e-13 4.22e-13 5.67e-13 9e-13 1.28e-12 1.71e-12 2.17e-12 2.67e-12 3.22e-12 3.79e-12 4.39e-12 5.03e-12 5.71e-12 
06 01 05  03 03 01 4.11e-14 1.46e-13 2.76e-13 5.32e-13 7.58e-13 9.6e-13 1.14e-12 1.3e-12 1.45e-12 1.58e-12 1.7e-12 1.92e-12 2.1e-12 2.26e-12 2.39e-12 2.51e-12 2.62e-12 2.71e-12 2.79e-12 2.87e-12 2.93e-12 
06 01 05  03 03 00 5.98e-14 2.27e-13 4.54e-13 9.45e-13 1.41e-12 1.81e-12 2.17e-12 2.48e-12 2.76e-12 3e-12 3.22e-12 3.58e-12 3.87e-12 4.12e-12 4.32e-12 4.51e-12 4.64e-12 4.8e-12 4.9e-12 5.01e-12 5.1e-12 
06 01 05  04 03 02 2.53e-14 1.51e-13 3.72e-13 9.21e-13 1.46e-12 1.92e-12 2.33e-12 2.68e-12 2.98e-12 3.25e-12 3.49e-12 3.91e-12 4.25e-12 4.54e-12 4.8e-12 5.03e-12 5.24e-12 5.42e-12 5.59e-12 5.78e-12 5.91e-12 
06 01 05  04 03 01 1.25e-14 7.6e-14 1.91e-13 4.92e-13 8.04e-13 1.09e-12 1.35e-12 1.58e-12 1.78e-12 1.96e-12 2.12e-12 2.4e-12 2.64e-12 2.85e-12 3.02e-12 3.18e-12 3.31e-12 3.44e-12 3.54e-12 3.64e-12 3.73e-12 
06 01 05  05 03 03 1.76e-15 1.89e-14 6.35e-14 2.23e-13 4.33e-13 6.57e-13 8.78e-13 1.09e-12 1.29e-12 1.47e-12 1.65e-12 1.95e-12 2.23e-12 2.47e-12 2.68e-12 2.87e-12 3.04e-12 3.2e-12 3.34e-12 3.47e-12 3.58e-12 
06 01 05  05 03 02 2.11e-15 2.32e-14 7.94e-14 2.86e-13 5.64e-13 8.68e-13 1.17e-12 1.46e-12 1.74e-12 2e-12 2.25e-12 2.7e-12 3.1e-12 3.45e-12 3.77e-12 4.06e-12 4.32e-12 4.55e-12 4.76e-12 4.94e-12 5.11e-12 
06 01 05  06 03 04 2.62e-16 5.76e-15 2.76e-14 1.38e-13 3.18e-13 5.39e-13 7.75e-13 1.02e-12 1.25e-12 1.48e-12 1.7e-12 2.12e-12 2.5e-12 2.86e-12 3.2e-12 3.53e-12 3.84e-12 4.15e-12 4.45e-12 4.74e-12 5.04e-12 
06 01 05  06 03 03 3.1e-16 6.66e-15 3.15e-14 1.54e-13 3.52e-13 5.9e-13 8.47e-13 1.11e-12 1.37e-12 1.63e-12 1.88e-12 2.35e-12 2.78e-12 3.17e-12 3.53e-12 3.87e-12 4.18e-12 4.47e-12 4.74e-12 4.99e-12 5.24e-12 
06 01 05  07 03 05 5.99e-17 2.81e-15 1.93e-14 1.34e-13 3.53e-13 6.36e-13 9.46e-13 1.26e-12 1.58e-12 1.89e-12 2.19e-12 2.78e-12 3.33e-12 3.86e-12 4.37e-12 4.85e-12 5.3e-12 5.74e-12 6.15e-12 6.54e-12 6.92e-12 
06 01 05  07 03 04 2.35e-17 1.1e-15 7.48e-15 5.1e-14 1.33e-13 2.38e-13 3.51e-13 4.67e-13 5.83e-13 6.94e-13 8.01e-13 9.98e-13 1.18e-12 1.36e-12 1.51e-12 1.66e-12 1.8e-12 1.93e-12 2.07e-12 2.19e-12 2.31e-12 
06 01 05  08 03 06 2.08e-18 2.47e-16 2.69e-15 2.95e-14 9.81e-14 2.03e-13 3.31e-13 4.7e-13 6.14e-13 7.56e-13 8.97e-13 1.16e-12 1.41e-12 1.64e-12 1.86e-12 2.06e-12 2.26e-12 2.45e-12 2.63e-12 2.8e-12 2.98e-12 
06 01 05  08 03 05 2.44e-18 2.93e-16 3.24e-15 3.65e-14 1.24e-13 2.62e-13 4.34e-13 6.25e-13 8.24e-13 1.03e-12 1.22e-12 1.61e-12 1.96e-12 2.3e-12 2.61e-12 2.9e-12 3.17e-12 3.43e-12 3.66e-12 3.9e-12 4.12e-12 
06 01 05  09 03 07 8.84e-20 2.95e-17 5.38e-16 9.8e-15 4.2e-14 1.01e-13 1.82e-13 2.8e-13 3.9e-13 5.07e-13 6.26e-13 8.69e-13 1.11e-12 1.35e-12 1.59e-12 1.82e-12 2.04e-12 2.26e-12 2.47e-12 2.68e-12 2.89e-12 
06 01 05  09 03 06 1.13e-19 3.9e-17 7.22e-16 1.34e-14 5.81e-14 1.4e-13 2.53e-13 3.86e-13 5.32e-13 6.83e-13 8.38e-13 1.14e-12 1.43e-12 1.72e-12 1.99e-12 2.25e-12 2.51e-12 2.76e-12 3.01e-12 3.27e-12 3.52e-12 
06 01 05  10 03 08 2.18e-21 2.44e-18 8.07e-17 2.6e-15 1.46e-14 4.09e-14 8.16e-14 1.34e-13 1.95e-13 2.63e-13 3.34e-13 4.83e-13 6.39e-13 7.93e-13 9.48e-13 1.09e-12 1.24e-12 1.39e-12 1.53e-12 1.67e-12 1.8e-12 
06 01 05  10 03 07 5.83e-21 6.65e-18 2.23e-16 7.47e-15 4.33e-14 1.26e-13 2.58e-13 4.34e-13 6.45e-13 8.81e-13 1.14e-12 1.67e-12 2.21e-12 2.74e-12 3.24e-12 3.71e-12 4.14e-12 4.54e-12 4.9e-12 5.22e-12 5.52e-12 
07 01 07  01 01 01 2.11e-12 2e-12 1.91e-12 1.77e-12 1.68e-12 1.62e-12 1.58e-12 1.56e-12 1.55e-12 1.55e-12 1.56e-12 1.58e-12 1.61e-12 1.65e-12 1.69e-12 1.72e-12 1.76e-12 1.79e-12 1.82e-12 1.85e-12 1.88e-12 
07 01 07  01 01 00 2.95e-12 2.96e-12 2.97e-12 3.02e-12 3.11e-12 3.2e-12 3.28e-12 3.35e-12 3.42e-12 3.48e-12 3.54e-12 3.65e-12 3.75e-12 3.84e-12 3.94e-12 4.03e-12 4.12e-12 4.21e-12 4.29e-12 4.37e-12 4.45e-12 
07 01 07  02 01 02 7.27e-12 7.16e-12 7.06e-12 6.9e-12 6.8e-12 6.76e-12 6.75e-12 6.78e-12 6.83e-12 6.89e-12 6.97e-12 7.13e-12 7.31e-12 7.48e-12 7.64e-12 7.78e-12 7.92e-12 8.05e-12 8.16e-12 8.27e-12 8.36e-12 
07 01 07  02 01 01 3.43e-12 3.35e-12 3.26e-12 3.11e-12 3.02e-12 2.96e-12 2.93e-12 2.91e-12 2.9e-12 2.9e-12 2.9e-12 2.91e-12 2.92e-12 2.94e-12 2.95e-12 2.96e-12 2.97e-12 2.97e-12 2.97e-12 2.96e-12 2.94e-12 
07 01 07  03 01 03 4.32e-12 4.13e-12 4.01e-12 3.91e-12 3.94e-12 4.05e-12 4.19e-12 4.34e-12 4.51e-12 4.69e-12 4.87e-12 5.23e-12 5.58e-12 5.93e-12 6.26e-12 6.58e-12 6.87e-12 7.15e-12 7.41e-12 7.65e-12 7.88e-12 
07 01 07  03 01 02 1.04e-11 1.04e-11 1.05e-11 1.05e-11 1.05e-11 1.05e-11 1.06e-11 1.06e-11 1.07e-11 1.07e-11 1.08e-11 1.09e-11 1.1e-11 1.12e-11 1.13e-11 1.15e-11 1.16e-11 1.18e-11 1.19e-11 1.21e-11 1.22e-11 
07 01 07  04 01 04 6.42e-12 6.41e-12 6.42e-12 6.57e-12 6.86e-12 7.22e-12 7.6e-12 7.98e-12 8.34e-12 8.69e-12 9.01e-12 9.59e-12 1.01e-11 1.05e-11 1.09e-11 1.12e-11 1.15e-11 1.17e-11 1.19e-11 1.21e-11 1.22e-11 
07 01 07  04 01 03 8.5e-12 8.15e-12 7.88e-12 7.53e-12 7.35e-12 7.27e-12 7.23e-12 7.22e-12 7.23e-12 7.25e-12 7.27e-12 7.33e-12 7.39e-12 7.45e-12 7.5e-12 7.54e-12 7.57e-12 7.6e-12 7.61e-12 7.61e-12 7.61e-12 
07 01 07  05 01 05 7.49e-12 7.7e-12 7.92e-12 8.51e-12 9.27e-12 1.01e-11 1.1e-11 1.19e-11 1.28e-11 1.37e-11 1.46e-11 1.62e-11 1.77e-11 1.9e-11 2.03e-11 2.14e-11 2.25e-11 2.34e-11 2.42e-11 2.5e-11 2.57e-11 
07 01 07  05 01 04 1.39e-11 1.37e-11 1.35e-11 1.35e-11 1.35e-11 1.36e-11 1.38e-11 1.39e-11 1.4e-11 1.42e-11 1.43e-11 1.46e-11 1.49e-11 1.51e-11 1.54e-11 1.56e-11 1.59e-11 1.62e-11 1.64e-11 1.66e-11 1.69e-11 
07 01 07  06 01 06 4.73e-11 4.74e-11 4.75e-11 4.76e-11 4.76e-11 4.77e-11 4.77e-11 4.77e-11 4.77e-11 4.77e-11 4.77e-11 4.76e-11 4.76e-11 4.75e-11 4.73e-11 4.72e-11 4.7e-11 4.67e-11 4.64e-11 4.61e-11 4.57e-11 
07 01 07  06 01 05 1.29e-11 1.24e-11 1.21e-11 1.16e-11 1.14e-11 1.13e-11 1.14e-11 1.14e-11 1.15e-11 1.16e-11 1.17e-11 1.18e-11 1.2e-11 1.21e-11 1.23e-11 1.24e-11 1.25e-11 1.25e-11 1.26e-11 1.26e-11 1.27e-11 
07 01 07  07 01 07 0 0 0 0 0 0 0 0 0 0 0 0 0 0 0 0 0 0 0 0 0 
07 01 07  07 01 06 3.23e-12 4.1e-12 4.58e-12 5.06e-12 5.3e-12 5.45e-12 5.56e-12 5.69e-12 5.8e-12 5.92e-12 6.04e-12 6.28e-12 6.51e-12 6.73e-12 6.94e-12 7.15e-12 7.34e-12 7.53e-12 7.72e-12 7.9e-12 8.07e-12 
07 01 07  08 01 08 3.73e-12 9.03e-12 1.41e-11 2.21e-11 2.76e-11 3.16e-11 3.46e-11 3.69e-11 3.88e-11 4.03e-11 4.15e-11 4.34e-11 4.49e-11 4.59e-11 4.68e-11 4.74e-11 4.79e-11 4.82e-11 4.84e-11 4.86e-11 4.87e-11 
07 01 07  08 01 07 4.55e-13 1.45e-12 2.53e-12 4.36e-12 5.71e-12 6.7e-12 7.48e-12 8.21e-12 8.81e-12 9.33e-12 9.79e-12 1.06e-11 1.14e-11 1.19e-11 1.25e-11 1.3e-11 1.34e-11 1.38e-11 1.42e-11 1.46e-11 1.49e-11 
07 01 07  09 01 09 2.07e-14 1.52e-13 4.23e-13 1.25e-12 2.27e-12 3.38e-12 4.54e-12 5.69e-12 6.92e-12 8.1e-12 9.27e-12 1.15e-11 1.38e-11 1.59e-11 1.79e-11 1.99e-11 2.17e-11 2.34e-11 2.51e-11 2.66e-11 2.81e-11 
07 01 07  09 01 08 8.08e-15 7.94e-14 2.5e-13 7.97e-13 1.44e-12 2.07e-12 2.65e-12 3.18e-12 3.67e-12 4.11e-12 4.5e-12 5.2e-12 5.78e-12 6.27e-12 6.72e-12 7.11e-12 7.46e-12 7.8e-12 8.12e-12 8.43e-12 8.72e-12 
07 01 07  10 01 10 6.88e-16 1.46e-14 6.92e-14 3.49e-13 8.21e-13 1.42e-12 2.08e-12 2.77e-12 3.46e-12 4.15e-12 4.82e-12 6.08e-12 7.22e-12 8.23e-12 9.19e-12 1e-11 1.07e-11 1.14e-11 1.2e-11 1.25e-11 1.3e-11 
07 01 07  10 01 09 2.03e-16 6.69e-15 3.87e-14 2.27e-13 5.58e-13 9.68e-13 1.41e-12 1.86e-12 2.3e-12 2.72e-12 3.13e-12 3.9e-12 4.62e-12 5.28e-12 5.92e-12 6.53e-12 7.12e-12 7.71e-12 8.3e-12 8.87e-12 9.45e-12 
07 01 07  11 01 11 1.05e-17 7.21e-16 5.92e-15 4.86e-14 1.4e-13 2.69e-13 4.24e-13 5.93e-13 7.76e-13 9.68e-13 1.18e-12 1.62e-12 2.11e-12 2.64e-12 3.22e-12 3.83e-12 4.48e-12 5.17e-12 5.91e-12 6.66e-12 7.46e-12 
07 01 07  11 01 10 1.83e-18 2.12e-16 2.33e-15 2.64e-14 9.21e-14 1.99e-13 3.38e-13 5.02e-13 6.82e-13 8.73e-13 1.08e-12 1.49e-12 1.91e-12 2.33e-12 2.75e-12 3.16e-12 3.55e-12 3.94e-12 4.33e-12 4.71e-12 5.07e-12 
07 01 07  12 01 12 1.49e-19 3.94e-17 6.51e-16 1.11e-14 4.81e-14 1.2e-13 2.29e-13 3.73e-13 5.47e-13 7.47e-13 9.73e-13 1.47e-12 2.02e-12 2.59e-12 3.16e-12 3.75e-12 4.32e-12 4.88e-12 5.43e-12 5.97e-12 6.5e-12 
07 01 07  12 01 11 1.34e-20 7.19e-18 1.74e-16 4.48e-15 2.44e-14 7.01e-14 1.46e-13 2.52e-13 3.85e-13 5.38e-13 7.09e-13 1.09e-12 1.5e-12 1.92e-12 2.34e-12 2.76e-12 3.16e-12 3.56e-12 3.94e-12 4.31e-12 4.66e-12 
07 01 07  03 03 01 2.21e-13 4.69e-13 7.15e-13 1.17e-12 1.56e-12 1.9e-12 2.19e-12 2.44e-12 2.65e-12 2.84e-12 2.99e-12 3.25e-12 3.45e-12 3.6e-12 3.72e-12 3.81e-12 3.88e-12 3.93e-12 3.96e-12 3.98e-12 3.99e-12 
07 01 07  03 03 00 2.84e-13 5.95e-13 8.83e-13 1.36e-12 1.73e-12 2.04e-12 2.29e-12 2.51e-12 2.7e-12 2.87e-12 3.02e-12 3.26e-12 3.45e-12 3.59e-12 3.71e-12 3.8e-12 3.86e-12 3.9e-12 3.92e-12 3.93e-12 3.93e-12 
07 01 07  04 03 02 7.95e-14 2.68e-13 5.14e-13 1.04e-12 1.53e-12 1.97e-12 2.35e-12 2.69e-12 2.98e-12 3.24e-12 3.47e-12 3.86e-12 4.18e-12 4.43e-12 4.64e-12 4.82e-12 4.96e-12 5.09e-12 5.18e-12 5.27e-12 5.34e-12 
07 01 07  04 03 01 5.7e-14 1.78e-13 3.22e-13 6.06e-13 8.77e-13 1.13e-12 1.37e-12 1.6e-12 1.81e-12 2.01e-12 2.18e-12 2.5e-12 2.76e-12 2.97e-12 3.15e-12 3.31e-12 3.44e-12 3.55e-12 3.64e-12 3.73e-12 3.8e-12 
07 01 07  05 03 03 2.35e-14 1.33e-13 3.19e-13 7.9e-13 1.28e-12 1.76e-12 2.2e-12 2.6e-12 2.96e-12 3.29e-12 3.59e-12 4.1e-12 4.52e-12 4.86e-12 5.14e-12 5.36e-12 5.56e-12 5.71e-12 5.85e-12 5.95e-12 6.04e-12 
07 01 07  05 03 02 1.06e-14 5.91e-14 1.42e-13 3.58e-13 6.01e-13 8.49e-13 1.1e-12 1.34e-12 1.57e-12 1.79e-12 2e-12 2.37e-12 2.69e-12 2.97e-12 3.22e-12 3.44e-12 3.64e-12 3.82e-12 3.99e-12 4.15e-12 4.3e-12 
07 01 07  06 03 04 3.94e-15 4.56e-14 1.57e-13 5.56e-13 1.07e-12 1.62e-12 2.15e-12 2.65e-12 3.12e-12 3.55e-12 3.94e-12 4.64e-12 5.25e-12 5.76e-12 6.18e-12 6.56e-12 6.9e-12 7.22e-12 7.53e-12 7.75e-12 8.02e-12 
07 01 07  06 03 03 2.28e-15 2.65e-14 9.11e-14 3.27e-13 6.45e-13 9.96e-13 1.35e-12 1.7e-12 2.03e-12 2.33e-12 2.61e-12 3.09e-12 3.47e-12 3.76e-12 3.99e-12 4.16e-12 4.3e-12 4.41e-12 4.49e-12 4.55e-12 4.61e-12 
07 01 07  07 03 05 2.32e-16 5.87e-15 2.97e-14 1.53e-13 3.52e-13 5.89e-13 8.41e-13 1.1e-12 1.35e-12 1.59e-12 1.83e-12 2.29e-12 2.73e-12 3.14e-12 3.52e-12 3.88e-12 4.22e-12 4.54e-12 4.85e-12 5.14e-12 5.41e-12 
07 01 07  07 03 04 4.19e-16 1.03e-14 5.07e-14 2.49e-13 5.49e-13 8.82e-13 1.21e-12 1.52e-12 1.81e-12 2.09e-12 2.34e-12 2.8e-12 3.21e-12 3.59e-12 3.93e-12 4.26e-12 4.55e-12 4.83e-12 5.09e-12 5.32e-12 5.55e-12 
07 01 07  08 03 06 8.37e-18 5.4e-16 4.37e-15 3.55e-14 1.02e-13 1.92e-13 2.96e-13 4.04e-13 5.13e-13 6.22e-13 7.31e-13 9.36e-13 1.13e-12 1.32e-12 1.49e-12 1.66e-12 1.81e-12 1.96e-12 2.09e-12 2.22e-12 2.35e-12 
07 01 07  08 03 05 2.5e-17 1.58e-15 1.26e-14 1.02e-13 2.95e-13 5.66e-13 8.84e-13 1.23e-12 1.58e-12 1.93e-12 2.27e-12 2.93e-12 3.54e-12 4.1e-12 4.62e-12 5.1e-12 5.54e-12 5.95e-12 6.33e-12 6.68e-12 7.01e-12 
07 01 07  09 03 07 3.94e-19 7.2e-17 9.79e-16 1.34e-14 5.02e-14 1.12e-13 1.94e-13 2.87e-13 3.9e-13 4.96e-13 6.04e-13 8.19e-13 1.03e-12 1.23e-12 1.42e-12 1.6e-12 1.78e-12 1.94e-12 2.11e-12 2.26e-12 2.41e-12 
07 01 07  09 03 06 9.65e-19 1.78e-16 2.44e-15 3.37e-14 1.27e-13 2.82e-13 4.84e-13 7.15e-13 9.64e-13 1.22e-12 1.48e-12 1.98e-12 2.45e-12 2.9e-12 3.3e-12 3.67e-12 4.01e-12 4.32e-12 4.59e-12 4.84e-12 5.06e-12 
07 01 07  10 03 08 1.74e-20 1.06e-17 2.61e-16 6.32e-15 3.1e-14 8.09e-14 1.55e-13 2.47e-13 3.54e-13 4.72e-13 5.98e-13 8.63e-13 1.14e-12 1.42e-12 1.7e-12 1.97e-12 2.25e-12 2.51e-12 2.77e-12 3.02e-12 3.27e-12 
07 01 07  10 03 07 1.99e-20 1.24e-17 3.11e-16 7.86e-15 4e-14 1.08e-13 2.09e-13 3.39e-13 4.89e-13 6.53e-13 8.25e-13 1.18e-12 1.53e-12 1.87e-12 2.2e-12 2.51e-12 2.8e-12 3.07e-12 3.33e-12 3.57e-12 3.8e-12 
07 01 06  01 01 01 9.56e-14 8.9e-14 8.7e-14 9.63e-14 1.23e-13 1.65e-13 2.2e-13 2.87e-13 3.62e-13 4.43e-13 5.28e-13 7.07e-13 8.87e-13 1.06e-12 1.23e-12 1.4e-12 1.55e-12 1.69e-12 1.83e-12 1.95e-12 2.07e-12 
07 01 06  01 01 00 4.28e-13 4.11e-13 4.11e-13 4.41e-13 5e-13 5.77e-13 6.64e-13 7.56e-13 8.5e-13 9.44e-13 1.04e-12 1.21e-12 1.38e-12 1.54e-12 1.7e-12 1.84e-12 1.99e-12 2.13e-12 2.26e-12 2.4e-12 2.53e-12 
07 01 06  02 01 02 7.67e-13 7.65e-13 7.92e-13 8.84e-13 1.01e-12 1.14e-12 1.28e-12 1.42e-12 1.56e-12 1.69e-12 1.82e-12 2.07e-12 2.31e-12 2.54e-12 2.77e-12 3e-12 3.23e-12 3.46e-12 3.7e-12 3.94e-12 4.18e-12 
07 01 06  02 01 01 8.43e-13 8.16e-13 8.24e-13 9.05e-13 1.04e-12 1.2e-12 1.39e-12 1.58e-12 1.77e-12 1.96e-12 2.14e-12 2.49e-12 2.81e-12 3.1e-12 3.36e-12 3.6e-12 3.82e-12 4.02e-12 4.21e-12 4.37e-12 4.53e-12 
07 01 06  03 01 03 1.41e-12 1.41e-12 1.45e-12 1.56e-12 1.69e-12 1.82e-12 1.96e-12 2.1e-12 2.24e-12 2.39e-12 2.53e-12 2.83e-12 3.12e-12 3.4e-12 3.68e-12 3.95e-12 4.21e-12 4.46e-12 4.7e-12 4.93e-12 5.16e-12 
07 01 06  03 01 02 4.09e-12 3.97e-12 3.96e-12 4.07e-12 4.25e-12 4.46e-12 4.67e-12 4.88e-12 5.09e-12 5.31e-12 5.52e-12 5.95e-12 6.38e-12 6.79e-12 7.21e-12 7.61e-12 8e-12 8.38e-12 8.76e-12 9.12e-12 9.48e-12 
07 01 06  04 01 04 5.36e-12 5.17e-12 5.09e-12 5.05e-12 5.09e-12 5.18e-12 5.3e-12 5.44e-12 5.6e-12 5.76e-12 5.93e-12 6.28e-12 6.63e-12 7e-12 7.36e-12 7.74e-12 8.12e-12 8.51e-12 8.9e-12 9.31e-12 9.72e-12 
07 01 06  04 01 03 9.47e-12 9.24e-12 9.21e-12 9.38e-12 9.66e-12 9.97e-12 1.03e-11 1.06e-11 1.09e-11 1.12e-11 1.15e-11 1.19e-11 1.23e-11 1.26e-11 1.29e-11 1.31e-11 1.32e-11 1.34e-11 1.34e-11 1.35e-11 1.35e-11 
07 01 06  05 01 05 5.77e-12 5.5e-12 5.33e-12 5.12e-12 5.02e-12 4.99e-12 5e-12 5.04e-12 5.11e-12 5.21e-12 5.31e-12 5.56e-12 5.83e-12 6.12e-12 6.42e-12 6.72e-12 7.01e-12 7.3e-12 7.59e-12 7.88e-12 8.16e-12 
07 01 06  05 01 04 2.3e-11 2.19e-11 2.13e-11 2.09e-11 2.09e-11 2.13e-11 2.18e-11 2.24e-11 2.3e-11 2.37e-11 2.43e-11 2.55e-11 2.66e-11 2.76e-11 2.85e-11 2.92e-11 2.99e-11 3.05e-11 3.09e-11 3.13e-11 3.17e-11 
07 01 06  06 01 06 1.44e-11 1.36e-11 1.31e-11 1.24e-11 1.2e-11 1.18e-11 1.18e-11 1.19e-11 1.2e-11 1.22e-11 1.24e-11 1.28e-11 1.33e-11 1.37e-11 1.41e-11 1.45e-11 1.48e-11 1.52e-11 1.55e-11 1.58e-11 1.61e-11 
07 01 06  06 01 05 5.39e-11 5.33e-11 5.29e-11 5.24e-11 5.19e-11 5.16e-11 5.13e-11 5.12e-11 5.11e-11 5.1e-11 5.09e-11 5.08e-11 5.08e-11 5.07e-11 5.06e-11 5.04e-11 5.02e-11 5e-11 4.98e-11 4.95e-11 4.92e-11 
07 01 06  07 01 07 6.17e-12 6.32e-12 6.34e-12 6.28e-12 6.23e-12 6.2e-12 6.2e-12 6.24e-12 6.29e-12 6.36e-12 6.45e-12 6.63e-12 6.82e-12 7.01e-12 7.19e-12 7.38e-12 7.56e-12 7.74e-12 7.91e-12 8.08e-12 8.25e-12 
07 01 06  07 01 06 0 0 0 0 0 0 0 0 0 0 0 0 0 0 0 0 0 0 0 0 0 
07 01 06  08 01 08 1.64e-12 3.23e-12 4.5e-12 6.23e-12 7.39e-12 8.19e-12 8.85e-12 9.38e-12 9.82e-12 1.03e-11 1.06e-11 1.12e-11 1.16e-11 1.21e-11 1.23e-11 1.26e-11 1.28e-11 1.29e-11 1.3e-11 1.31e-11 1.31e-11 
07 01 06  08 01 07 3.52e-12 8.95e-12 1.43e-11 2.28e-11 2.87e-11 3.31e-11 3.65e-11 3.92e-11 4.14e-11 4.32e-11 4.47e-11 4.71e-11 4.9e-11 5.03e-11 5.15e-11 5.23e-11 5.3e-11 5.35e-11 5.39e-11 5.41e-11 5.42e-11 
07 01 06  09 01 09 9.08e-14 5.13e-13 1.22e-12 2.92e-12 4.57e-12 6.04e-12 7.26e-12 8.38e-12 9.31e-12 1.01e-11 1.08e-11 1.2e-11 1.29e-11 1.36e-11 1.43e-11 1.48e-11 1.53e-11 1.57e-11 1.6e-11 1.64e-11 1.67e-11 
07 01 06  09 01 08 5.31e-14 4e-13 1.11e-12 3.16e-12 5.41e-12 7.57e-12 9.61e-12 1.14e-11 1.31e-11 1.47e-11 1.62e-11 1.88e-11 2.12e-11 2.34e-11 2.54e-11 2.71e-11 2.87e-11 3.01e-11 3.14e-11 3.26e-11 3.36e-11 
07 01 06  10 01 10 2.87e-15 4.57e-14 1.81e-13 7.03e-13 1.38e-12 2.05e-12 2.66e-12 3.21e-12 3.69e-12 4.13e-12 4.51e-12 5.18e-12 5.75e-12 6.25e-12 6.71e-12 7.16e-12 7.57e-12 7.98e-12 8.38e-12 8.77e-12 9.16e-12 
07 01 06  10 01 09 8.5e-16 2.21e-14 1.14e-13 6.03e-13 1.41e-12 2.39e-12 3.42e-12 4.49e-12 5.51e-12 6.49e-12 7.45e-12 9.2e-12 1.08e-11 1.22e-11 1.34e-11 1.45e-11 1.54e-11 1.61e-11 1.68e-11 1.74e-11 1.79e-11 
07 01 06  11 01 11 5.74e-17 3.3e-15 2.51e-14 1.91e-13 5.31e-13 9.86e-13 1.49e-12 2.02e-12 2.54e-12 3.03e-12 3.52e-12 4.4e-12 5.21e-12 5.93e-12 6.58e-12 7.18e-12 7.72e-12 8.22e-12 8.68e-12 9.12e-12 9.51e-12 
07 01 06  11 01 10 7.64e-18 7.17e-16 7.08e-15 7.3e-14 2.44e-13 5.15e-13 8.62e-13 1.26e-12 1.7e-12 2.16e-12 2.64e-12 3.64e-12 4.67e-12 5.72e-12 6.8e-12 7.88e-12 9.04e-12 1.02e-11 1.13e-11 1.26e-11 1.38e-11 
07 01 06  12 01 12 6.95e-19 1.49e-16 2.22e-15 3.36e-14 1.33e-13 3.04e-13 5.28e-13 7.84e-13 1.06e-12 1.33e-12 1.61e-12 2.14e-12 2.62e-12 3.07e-12 3.49e-12 3.88e-12 4.24e-12 4.58e-12 4.91e-12 5.22e-12 5.51e-12 
07 01 06  12 01 11 3.11e-20 1.34e-17 2.87e-16 6.54e-15 3.34e-14 9.33e-14 1.91e-13 3.26e-13 4.94e-13 6.91e-13 9.1e-13 1.4e-12 1.92e-12 2.45e-12 2.99e-12 3.51e-12 4.02e-12 4.51e-12 4.98e-12 5.41e-12 5.84e-12 
07 01 06  03 03 01 3.72e-13 5.99e-13 7.81e-13 1.1e-12 1.38e-12 1.65e-12 1.89e-12 2.11e-12 2.31e-12 2.49e-12 2.65e-12 2.92e-12 3.15e-12 3.33e-12 3.47e-12 3.59e-12 3.69e-12 3.78e-12 3.85e-12 3.91e-12 3.97e-12 
07 01 06  03 03 00 3.16e-13 4.68e-13 5.62e-13 6.88e-13 7.87e-13 8.83e-13 9.74e-13 1.06e-12 1.15e-12 1.23e-12 1.3e-12 1.43e-12 1.55e-12 1.65e-12 1.73e-12 1.81e-12 1.89e-12 1.95e-12 2.02e-12 2.07e-12 2.13e-12 
07 01 06  04 03 02 1.83e-13 4.81e-13 7.92e-13 1.32e-12 1.73e-12 2.04e-12 2.29e-12 2.5e-12 2.68e-12 2.83e-12 2.97e-12 3.2e-12 3.39e-12 3.54e-12 3.68e-12 3.8e-12 3.9e-12 3.98e-12 4.06e-12 4.12e-12 4.17e-12 
07 01 06  04 03 01 2.73e-13 7.3e-13 1.22e-12 2.08e-12 2.75e-12 3.26e-12 3.66e-12 3.99e-12 4.26e-12 4.52e-12 4.71e-12 5.03e-12 5.3e-12 5.54e-12 5.7e-12 5.84e-12 5.97e-12 6.08e-12 6.14e-12 6.24e-12 6.28e-12 
07 01 06  05 03 03 4.35e-14 2.04e-13 4.48e-13 1.01e-12 1.55e-12 2.03e-12 2.45e-12 2.82e-12 3.15e-12 3.45e-12 3.71e-12 4.17e-12 4.54e-12 4.87e-12 5.15e-12 5.39e-12 5.61e-12 5.81e-12 5.99e-12 6.15e-12 6.3e-12 
07 01 06  05 03 02 2.65e-14 1.24e-13 2.74e-13 6.28e-13 9.86e-13 1.32e-12 1.64e-12 1.92e-12 2.19e-12 2.43e-12 2.65e-12 3.03e-12 3.35e-12 3.63e-12 3.87e-12 4.07e-12 4.25e-12 4.41e-12 4.55e-12 4.67e-12 4.79e-12 
07 01 06  06 03 04 2.87e-15 2.76e-14 8.78e-14 2.92e-13 5.49e-13 8.2e-13 1.09e-12 1.35e-12 1.59e-12 1.82e-12 2.03e-12 2.4e-12 2.73e-12 3.01e-12 3.25e-12 3.45e-12 3.64e-12 3.8e-12 3.95e-12 4.07e-12 4.19e-12 
07 01 06  06 03 03 2.33e-15 2.33e-14 7.75e-14 2.81e-13 5.65e-13 8.86e-13 1.21e-12 1.54e-12 1.84e-12 2.14e-12 2.41e-12 2.91e-12 3.35e-12 3.73e-12 4.08e-12 4.39e-12 4.69e-12 4.95e-12 5.21e-12 5.45e-12 5.67e-12 
07 01 06  07 03 05 2.96e-16 6.19e-15 2.89e-14 1.39e-13 3.09e-13 5.09e-13 7.15e-13 9.21e-13 1.12e-12 1.31e-12 1.49e-12 1.84e-12 2.16e-12 2.46e-12 2.75e-12 3.02e-12 3.28e-12 3.53e-12 3.78e-12 4.02e-12 4.25e-12 
07 01 06  07 03 04 4.6e-16 9.25e-15 4.15e-14 1.88e-13 4.04e-13 6.47e-13 8.95e-13 1.14e-12 1.38e-12 1.61e-12 1.84e-12 2.27e-12 2.67e-12 3.05e-12 3.41e-12 3.75e-12 4.07e-12 4.37e-12 4.66e-12 4.94e-12 5.2e-12 
07 01 06  08 03 06 4.39e-17 2.27e-15 1.65e-14 1.22e-13 3.39e-13 6.34e-13 9.71e-13 1.33e-12 1.68e-12 2.04e-12 2.38e-12 3.03e-12 3.63e-12 4.19e-12 4.71e-12 5.2e-12 5.66e-12 6.1e-12 6.52e-12 6.93e-12 7.32e-12 
07 01 06  08 03 05 1.83e-17 9.42e-16 6.75e-15 4.86e-14 1.3e-13 2.35e-13 3.5e-13 4.64e-13 5.76e-13 6.83e-13 7.83e-13 9.72e-13 1.14e-12 1.29e-12 1.43e-12 1.56e-12 1.67e-12 1.77e-12 1.87e-12 1.96e-12 2.05e-12 
07 01 06  09 03 07 1.59e-18 2.27e-16 2.69e-15 3.15e-14 1.08e-13 2.25e-13 3.7e-13 5.29e-13 6.92e-13 8.55e-13 1.01e-12 1.31e-12 1.59e-12 1.85e-12 2.09e-12 2.31e-12 2.52e-12 2.72e-12 2.91e-12 3.1e-12 3.28e-12 
07 01 06  09 03 06 9.54e-19 1.46e-16 1.83e-15 2.38e-14 8.76e-14 1.93e-13 3.31e-13 4.88e-13 6.53e-13 8.24e-13 9.97e-13 1.34e-12 1.67e-12 1.98e-12 2.3e-12 2.6e-12 2.9e-12 3.2e-12 3.49e-12 3.79e-12 4.09e-12 
07 01 06  10 03 08 4.17e-20 2.03e-17 4.41e-16 9.44e-15 4.33e-14 1.08e-13 2.01e-13 3.14e-13 4.42e-13 5.8e-13 7.24e-13 1.03e-12 1.33e-12 1.63e-12 1.92e-12 2.21e-12 2.48e-12 2.75e-12 3.01e-12 3.26e-12 3.51e-12 
07 01 06  10 03 07 4.78e-20 2.33e-17 5.11e-16 1.11e-14 5.17e-14 1.31e-13 2.46e-13 3.88e-13 5.48e-13 7.21e-13 9e-13 1.26e-12 1.62e-12 1.95e-12 2.25e-12 2.53e-12 2.77e-12 2.99e-12 3.18e-12 3.34e-12 3.48e-12 
08 01 08  01 01 01 1.76e-12 1.75e-12 1.76e-12 1.8e-12 1.84e-12 1.89e-12 1.94e-12 1.99e-12 2.04e-12 2.09e-12 2.15e-12 2.26e-12 2.38e-12 2.5e-12 2.62e-12 2.75e-12 2.88e-12 3.01e-12 3.15e-12 3.29e-12 3.42e-12 
08 01 08  01 01 00 1.39e-12 1.3e-12 1.24e-12 1.16e-12 1.1e-12 1.07e-12 1.05e-12 1.04e-12 1.03e-12 1.03e-12 1.04e-12 1.06e-12 1.08e-12 1.1e-12 1.12e-12 1.14e-12 1.16e-12 1.17e-12 1.18e-12 1.19e-12 1.19e-12 
08 01 08  02 01 02 1.76e-12 1.72e-12 1.72e-12 1.76e-12 1.81e-12 1.86e-12 1.92e-12 1.97e-12 2.02e-12 2.07e-12 2.12e-12 2.22e-12 2.32e-12 2.41e-12 2.49e-12 2.57e-12 2.64e-12 2.71e-12 2.77e-12 2.83e-12 2.88e-12 
08 01 08  02 01 01 3.51e-12 3.47e-12 3.47e-12 3.54e-12 3.63e-12 3.72e-12 3.8e-12 3.88e-12 3.95e-12 4.03e-12 4.1e-12 4.25e-12 4.4e-12 4.57e-12 4.74e-12 4.92e-12 5.12e-12 5.32e-12 5.53e-12 5.75e-12 5.98e-12 
08 01 08  03 01 03 5.88e-12 5.7e-12 5.62e-12 5.54e-12 5.53e-12 5.56e-12 5.62e-12 5.71e-12 5.81e-12 5.93e-12 6.05e-12 6.32e-12 6.59e-12 6.85e-12 7.09e-12 7.33e-12 7.54e-12 7.74e-12 7.92e-12 8.09e-12 8.24e-12 
08 01 08  03 01 02 3.77e-12 3.61e-12 3.54e-12 3.48e-12 3.46e-12 3.46e-12 3.47e-12 3.48e-12 3.5e-12 3.51e-12 3.53e-12 3.56e-12 3.6e-12 3.64e-12 3.68e-12 3.72e-12 3.76e-12 3.8e-12 3.83e-12 3.86e-12 3.9e-12 
08 01 08  04 01 04 3.72e-12 3.5e-12 3.37e-12 3.28e-12 3.31e-12 3.4e-12 3.54e-12 3.71e-12 3.89e-12 4.09e-12 4.29e-12 4.73e-12 5.18e-12 5.64e-12 6.1e-12 6.55e-12 6.99e-12 7.43e-12 7.85e-12 8.27e-12 8.67e-12 
08 01 08  04 01 03 9.53e-12 9.4e-12 9.4e-12 9.49e-12 9.57e-12 9.63e-12 9.69e-12 9.74e-12 9.79e-12 9.84e-12 9.9e-12 1e-11 1.02e-11 1.03e-11 1.05e-11 1.07e-11 1.09e-11 1.11e-11 1.13e-11 1.15e-11 1.17e-11 
08 01 08  05 01 05 6.59e-12 6.34e-12 6.26e-12 6.37e-12 6.66e-12 7.03e-12 7.43e-12 7.83e-12 8.22e-12 8.58e-12 8.92e-12 9.51e-12 1e-11 1.04e-11 1.07e-11 1.1e-11 1.12e-11 1.13e-11 1.14e-11 1.14e-11 1.15e-11 
08 01 08  05 01 04 8.44e-12 8.04e-12 7.8e-12 7.51e-12 7.35e-12 7.27e-12 7.24e-12 7.23e-12 7.25e-12 7.28e-12 7.32e-12 7.41e-12 7.52e-12 7.63e-12 7.75e-12 7.86e-12 7.97e-12 8.07e-12 8.17e-12 8.26e-12 8.35e-12 
08 01 08  06 01 06 7.07e-12 7.21e-12 7.46e-12 8.12e-12 8.92e-12 9.81e-12 1.08e-11 1.17e-11 1.27e-11 1.36e-11 1.45e-11 1.63e-11 1.79e-11 1.95e-11 2.09e-11 2.23e-11 2.35e-11 2.47e-11 2.58e-11 2.68e-11 2.77e-11 
08 01 08  06 01 05 1.28e-11 1.24e-11 1.23e-11 1.22e-11 1.22e-11 1.23e-11 1.23e-11 1.24e-11 1.25e-11 1.26e-11 1.27e-11 1.29e-11 1.31e-11 1.33e-11 1.34e-11 1.36e-11 1.37e-11 1.38e-11 1.39e-11 1.4e-11 1.41e-11 
08 01 08  07 01 07 4.92e-11 4.83e-11 4.8e-11 4.79e-11 4.79e-11 4.79e-11 4.79e-11 4.79e-11 4.8e-11 4.8e-11 4.8e-11 4.8e-11 4.8e-11 4.8e-11 4.8e-11 4.79e-11 4.78e-11 4.76e-11 4.74e-11 4.72e-11 4.7e-11 
08 01 08  07 01 06 1.13e-11 1.12e-11 1.11e-11 1.09e-11 1.09e-11 1.09e-11 1.1e-11 1.11e-11 1.12e-11 1.14e-11 1.15e-11 1.17e-11 1.19e-11 1.21e-11 1.22e-11 1.23e-11 1.24e-11 1.24e-11 1.24e-11 1.24e-11 1.24e-11 
08 01 08  08 01 08 0 0 0 0 0 0 0 0 0 0 0 0 0 0 0 0 0 0 0 0 0 
08 01 08  08 01 07 2.68e-12 3.47e-12 3.89e-12 4.27e-12 4.43e-12 4.53e-12 4.6e-12 4.68e-12 4.75e-12 4.83e-12 4.9e-12 5.07e-12 5.25e-12 5.43e-12 5.61e-12 5.79e-12 5.98e-12 6.17e-12 6.35e-12 6.53e-12 6.72e-12 
08 01 08  09 01 09 2.27e-12 6.47e-12 1.1e-11 1.87e-11 2.47e-11 2.93e-11 3.29e-11 3.58e-11 3.81e-11 4e-11 4.17e-11 4.42e-11 4.6e-11 4.73e-11 4.82e-11 4.89e-11 4.93e-11 4.95e-11 4.96e-11 4.96e-11 4.95e-11 
08 01 08  09 01 08 2.17e-13 8.38e-13 1.67e-12 3.33e-12 4.71e-12 5.83e-12 6.74e-12 7.49e-12 8.05e-12 8.59e-12 9.06e-12 9.86e-12 1.05e-11 1.11e-11 1.16e-11 1.21e-11 1.25e-11 1.28e-11 1.32e-11 1.35e-11 1.39e-11 
08 01 08  10 01 10 1.31e-14 1.13e-13 3.43e-13 1.1e-12 2.05e-12 3.11e-12 4.21e-12 5.33e-12 6.48e-12 7.63e-12 8.78e-12 1.11e-11 1.33e-11 1.54e-11 1.75e-11 1.94e-11 2.14e-11 2.33e-11 2.52e-11 2.69e-11 2.87e-11 
08 01 08  10 01 09 2.39e-15 3.14e-14 1.14e-13 4.1e-13 7.76e-13 1.14e-12 1.47e-12 1.78e-12 2.06e-12 2.32e-12 2.55e-12 3e-12 3.42e-12 3.82e-12 4.21e-12 4.62e-12 5.02e-12 5.42e-12 5.84e-12 6.26e-12 6.69e-12 
08 01 08  11 01 11 2.26e-16 7.13e-15 4.12e-14 2.52e-13 6.51e-13 1.19e-12 1.81e-12 2.49e-12 3.19e-12 3.9e-12 4.61e-12 5.99e-12 7.28e-12 8.55e-12 9.71e-12 1.08e-11 1.19e-11 1.29e-11 1.37e-11 1.46e-11 1.54e-11 
08 01 08  11 01 10 5.5e-17 2.59e-15 1.8e-14 1.29e-13 3.53e-13 6.58e-13 1.01e-12 1.38e-12 1.76e-12 2.13e-12 2.5e-12 3.22e-12 3.89e-12 4.54e-12 5.17e-12 5.78e-12 6.38e-12 6.97e-12 7.56e-12 8.14e-12 8.73e-12 
08 01 08  12 01 12 2.41e-18 2.57e-16 2.65e-15 2.74e-14 8.9e-14 1.83e-13 3.01e-13 4.4e-13 5.92e-13 7.6e-13 9.39e-13 1.34e-12 1.79e-12 2.3e-12 2.84e-12 3.44e-12 4.07e-12 4.73e-12 5.43e-12 6.17e-12 6.94e-12 
08 01 08  12 01 11 2.96e-19 6.32e-17 9.44e-16 1.47e-14 6.04e-14 1.45e-13 2.67e-13 4.19e-13 5.97e-13 7.93e-13 1e-12 1.44e-12 1.9e-12 2.35e-12 2.8e-12 3.23e-12 3.64e-12 4.03e-12 4.4e-12 4.76e-12 5.1e-12 
08 01 08  03 03 01 1.07e-12 1.25e-12 1.42e-12 1.75e-12 2.04e-12 2.31e-12 2.54e-12 2.73e-12 2.91e-12 3.07e-12 3.2e-12 3.44e-12 3.62e-12 3.76e-12 3.88e-12 3.95e-12 4.01e-12 4.05e-12 4.07e-12 4.07e-12 4.06e-12 
08 01 08  03 03 00 1e-12 1.19e-12 1.38e-12 1.76e-12 2.09e-12 2.4e-12 2.66e-12 2.88e-12 3.08e-12 3.25e-12 3.41e-12 3.66e-12 3.85e-12 4e-12 4.12e-12 4.21e-12 4.28e-12 4.31e-12 4.35e-12 4.38e-12 4.37e-12 
08 01 08  04 03 02 4.85e-13 6.72e-13 8.17e-13 1.08e-12 1.33e-12 1.58e-12 1.81e-12 2.02e-12 2.22e-12 2.39e-12 2.56e-12 2.84e-12 3.06e-12 3.25e-12 3.41e-12 3.54e-12 3.66e-12 3.75e-12 3.84e-12 3.91e-12 3.97e-12 
08 01 08  04 03 01 8.76e-13 1.23e-12 1.5e-12 1.9e-12 2.19e-12 2.4e-12 2.58e-12 2.72e-12 2.85e-12 2.95e-12 3.05e-12 3.21e-12 3.34e-12 3.44e-12 3.52e-12 3.58e-12 3.63e-12 3.67e-12 3.7e-12 3.72e-12 3.73e-12 
08 01 08  05 03 03 1.62e-13 4.16e-13 7e-13 1.26e-12 1.76e-12 2.2e-12 2.58e-12 2.91e-12 3.2e-12 3.44e-12 3.67e-12 4.03e-12 4.33e-12 4.57e-12 4.76e-12 4.92e-12 5.05e-12 5.17e-12 5.27e-12 5.36e-12 5.43e-12 
08 01 08  05 03 02 1.89e-13 4.56e-13 7.17e-13 1.15e-12 1.49e-12 1.77e-12 2.01e-12 2.22e-12 2.4e-12 2.56e-12 2.71e-12 2.95e-12 3.14e-12 3.3e-12 3.42e-12 3.51e-12 3.59e-12 3.64e-12 3.68e-12 3.7e-12 3.72e-12 
08 01 08  06 03 04 5.59e-14 2.63e-13 5.72e-13 1.28e-12 1.98e-12 2.62e-12 3.2e-12 3.71e-12 4.17e-12 4.58e-12 4.92e-12 5.58e-12 6.06e-12 6.42e-12 6.75e-12 6.99e-12 7.2e-12 7.32e-12 7.5e-12 7.59e-12 7.68e-12 
08 01 08  06 03 03 1.69e-14 7.95e-14 1.81e-13 4.49e-13 7.6e-13 1.09e-12 1.42e-12 1.73e-12 2.03e-12 2.31e-12 2.56e-12 2.99e-12 3.34e-12 3.61e-12 3.84e-12 4.03e-12 4.19e-12 4.32e-12 4.44e-12 4.54e-12 4.64e-12 
08 01 08  07 03 05 5.52e-15 5.68e-14 1.83e-13 5.97e-13 1.08e-12 1.56e-12 1.99e-12 2.38e-12 2.74e-12 3.07e-12 3.37e-12 3.92e-12 4.42e-12 4.86e-12 5.26e-12 5.62e-12 5.95e-12 6.24e-12 6.5e-12 6.73e-12 6.94e-12 
08 01 08  07 03 04 2.52e-15 2.48e-14 7.66e-14 2.34e-13 4.11e-13 5.82e-13 7.45e-13 8.97e-13 1.04e-12 1.18e-12 1.31e-12 1.57e-12 1.8e-12 2.02e-12 2.23e-12 2.43e-12 2.61e-12 2.78e-12 2.95e-12 3.11e-12 3.26e-12 
08 01 08  08 03 06 2.55e-16 6.63e-15 3.4e-14 1.77e-13 4.11e-13 6.92e-13 9.91e-13 1.3e-12 1.59e-12 1.89e-12 2.16e-12 2.69e-12 3.18e-12 3.62e-12 4.03e-12 4.4e-12 4.75e-12 5.06e-12 5.36e-12 5.63e-12 5.88e-12 
08 01 08  08 03 05 3.56e-16 9.03e-15 4.52e-14 2.26e-13 5.08e-13 8.3e-13 1.16e-12 1.48e-12 1.79e-12 2.07e-12 2.35e-12 2.84e-12 3.29e-12 3.69e-12 4.06e-12 4.39e-12 4.69e-12 4.98e-12 5.24e-12 5.49e-12 5.72e-12 
08 01 08  09 03 07 6.42e-18 4.88e-16 4.3e-15 3.8e-14 1.14e-13 2.2e-13 3.41e-13 4.67e-13 5.93e-13 7.16e-13 8.36e-13 1.05e-12 1.25e-12 1.43e-12 1.6e-12 1.75e-12 1.9e-12 2.03e-12 2.16e-12 2.28e-12 2.38e-12 
08 01 08  09 03 06 1.72e-17 1.26e-15 1.07e-14 9.16e-14 2.7e-13 5.23e-13 8.22e-13 1.15e-12 1.48e-12 1.82e-12 2.16e-12 2.81e-12 3.44e-12 4.02e-12 4.56e-12 5.06e-12 5.53e-12 5.95e-12 6.35e-12 6.71e-12 7.05e-12 
08 01 08  10 03 08 1.75e-19 4.38e-17 6.92e-16 1.09e-14 4.42e-14 1.03e-13 1.83e-13 2.79e-13 3.87e-13 5.01e-13 6.18e-13 8.6e-13 1.1e-12 1.34e-12 1.56e-12 1.79e-12 2e-12 2.21e-12 2.4e-12 2.6e-12 2.79e-12 
08 01 08  10 03 07 5.16e-19 1.29e-16 2.02e-15 3.14e-14 1.23e-13 2.82e-13 4.91e-13 7.32e-13 9.94e-13 1.26e-12 1.54e-12 2.09e-12 2.64e-12 3.16e-12 3.67e-12 4.17e-12 4.65e-12 5.13e-12 5.59e-12 6.05e-12 6.5e-12 
08 01 07  01 01 01 1.54e-13 1.46e-13 1.46e-13 1.58e-13 1.84e-13 2.2e-13 2.63e-13 3.11e-13 3.62e-13 4.15e-13 4.68e-13 5.74e-13 6.75e-13 7.71e-13 8.59e-13 9.4e-13 1.01e-12 1.08e-12 1.14e-12 1.2e-12 1.25e-12 
08 01 07  01 01 00 8.79e-14 7.65e-14 7e-14 6.78e-14 7.76e-14 9.78e-14 1.27e-13 1.64e-13 2.07e-13 2.56e-13 3.08e-13 4.21e-13 5.41e-13 6.63e-13 7.85e-13 9.06e-13 1.03e-12 1.14e-12 1.26e-12 1.37e-12 1.48e-12 
08 01 07  02 01 02 1.44e-13 1.41e-13 1.44e-13 1.64e-13 1.99e-13 2.48e-13 3.07e-13 3.75e-13 4.51e-13 5.32e-13 6.18e-13 8.01e-13 9.93e-13 1.19e-12 1.39e-12 1.59e-12 1.79e-12 2e-12 2.2e-12 2.4e-12 2.6e-12 
08 01 07  02 01 01 5.37e-13 5.22e-13 5.26e-13 5.71e-13 6.45e-13 7.34e-13 8.31e-13 9.31e-13 1.03e-12 1.14e-12 1.24e-12 1.44e-12 1.64e-12 1.84e-12 2.05e-12 2.25e-12 2.46e-12 2.67e-12 2.89e-12 3.1e-12 3.33e-12 
08 01 07  03 01 03 7.91e-13 8.03e-13 8.39e-13 9.47e-13 1.08e-12 1.22e-12 1.36e-12 1.49e-12 1.63e-12 1.76e-12 1.88e-12 2.12e-12 2.35e-12 2.57e-12 2.79e-12 3e-12 3.21e-12 3.42e-12 3.63e-12 3.84e-12 4.05e-12 
08 01 07  03 01 02 1.06e-12 1.01e-12 1.01e-12 1.08e-12 1.23e-12 1.42e-12 1.62e-12 1.84e-12 2.06e-12 2.27e-12 2.48e-12 2.87e-12 3.23e-12 3.54e-12 3.82e-12 4.07e-12 4.3e-12 4.49e-12 4.67e-12 4.82e-12 4.96e-12 
08 01 07  04 01 04 1.56e-12 1.56e-12 1.59e-12 1.69e-12 1.82e-12 1.94e-12 2.08e-12 2.21e-12 2.35e-12 2.5e-12 2.64e-12 2.94e-12 3.24e-12 3.55e-12 3.86e-12 4.18e-12 4.5e-12 4.83e-12 5.15e-12 5.48e-12 5.81e-12 
08 01 07  04 01 03 4.08e-12 4.06e-12 4.09e-12 4.24e-12 4.42e-12 4.62e-12 4.82e-12 5.03e-12 5.25e-12 5.47e-12 5.7e-12 6.17e-12 6.67e-12 7.18e-12 7.7e-12 8.23e-12 8.76e-12 9.29e-12 9.82e-12 1.04e-11 1.09e-11 
08 01 07  05 01 05 5.52e-12 5.38e-12 5.3e-12 5.24e-12 5.26e-12 5.32e-12 5.41e-12 5.52e-12 5.64e-12 5.77e-12 5.9e-12 6.17e-12 6.45e-12 6.73e-12 7.02e-12 7.31e-12 7.61e-12 7.91e-12 8.21e-12 8.52e-12 8.83e-12 
08 01 07  05 01 04 1.05e-11 1.01e-11 9.94e-12 9.96e-12 1.02e-11 1.05e-11 1.08e-11 1.11e-11 1.14e-11 1.17e-11 1.2e-11 1.25e-11 1.3e-11 1.33e-11 1.36e-11 1.39e-11 1.41e-11 1.42e-11 1.44e-11 1.44e-11 1.45e-11 
08 01 07  06 01 06 5.94e-12 5.71e-12 5.53e-12 5.29e-12 5.16e-12 5.1e-12 5.09e-12 5.12e-12 5.18e-12 5.26e-12 5.36e-12 5.61e-12 5.89e-12 6.19e-12 6.5e-12 6.83e-12 7.16e-12 7.49e-12 7.82e-12 8.15e-12 8.47e-12 
08 01 07  06 01 05 2.17e-11 2.12e-11 2.09e-11 2.07e-11 2.09e-11 2.12e-11 2.17e-11 2.23e-11 2.3e-11 2.36e-11 2.43e-11 2.56e-11 2.69e-11 2.81e-11 2.91e-11 3.01e-11 3.09e-11 3.16e-11 3.23e-11 3.28e-11 3.32e-11 
08 01 07  07 01 07 1.38e-11 1.35e-11 1.31e-11 1.25e-11 1.22e-11 1.2e-11 1.19e-11 1.2e-11 1.21e-11 1.22e-11 1.23e-11 1.26e-11 1.29e-11 1.31e-11 1.34e-11 1.37e-11 1.39e-11 1.41e-11 1.44e-11 1.46e-11 1.48e-11 
08 01 07  07 01 06 5.58e-11 5.42e-11 5.34e-11 5.26e-11 5.22e-11 5.21e-11 5.21e-11 5.22e-11 5.24e-11 5.25e-11 5.26e-11 5.29e-11 5.31e-11 5.32e-11 5.33e-11 5.33e-11 5.33e-11 5.32e-11 5.31e-11 5.29e-11 5.27e-11 
08 01 07  08 01 08 6.16e-12 6.06e-12 5.91e-12 5.64e-12 5.46e-12 5.35e-12 5.29e-12 5.27e-12 5.27e-12 5.3e-12 5.33e-12 5.44e-12 5.57e-12 5.72e-12 5.88e-12 6.04e-12 6.21e-12 6.39e-12 6.56e-12 6.73e-12 6.91e-12 
08 01 07  08 01 07 0 0 0 0 0 0 0 0 0 0 0 0 0 0 0 0 0 0 0 0 0 
08 01 07  09 01 09 1.58e-12 3.29e-12 4.67e-12 6.59e-12 7.86e-12 8.77e-12 9.44e-12 9.95e-12 1.04e-11 1.08e-11 1.12e-11 1.17e-11 1.21e-11 1.25e-11 1.27e-11 1.29e-11 1.31e-11 1.32e-11 1.34e-11 1.35e-11 1.36e-11 
08 01 07  09 01 08 2.41e-12 7.22e-12 1.25e-11 2.19e-11 2.91e-11 3.46e-11 3.9e-11 4.24e-11 4.51e-11 4.74e-11 4.93e-11 5.22e-11 5.42e-11 5.57e-11 5.67e-11 5.74e-11 5.78e-11 5.82e-11 5.82e-11 5.82e-11 5.81e-11 
08 01 07  10 01 10 5.19e-14 3.25e-13 8.1e-13 2.03e-12 3.21e-12 4.24e-12 5.16e-12 5.9e-12 6.58e-12 7.11e-12 7.63e-12 8.45e-12 9.12e-12 9.76e-12 1.02e-11 1.06e-11 1.1e-11 1.13e-11 1.17e-11 1.2e-11 1.23e-11 
08 01 07  10 01 09 2.23e-14 2.28e-13 7.4e-13 2.42e-12 4.47e-12 6.58e-12 8.59e-12 1.04e-11 1.22e-11 1.39e-11 1.54e-11 1.83e-11 2.08e-11 2.32e-11 2.53e-11 2.73e-11 2.9e-11 3.07e-11 3.24e-11 3.37e-11 3.51e-11 
08 01 07  11 01 11 1.33e-15 2.83e-14 1.29e-13 5.75e-13 1.2e-12 1.84e-12 2.44e-12 2.97e-12 3.44e-12 3.85e-12 4.21e-12 4.82e-12 5.33e-12 5.78e-12 6.19e-12 6.58e-12 6.96e-12 7.33e-12 7.69e-12 8.06e-12 8.43e-12 
08 01 07  11 01 10 3.22e-16 1.15e-14 6.92e-14 4.25e-13 1.08e-12 1.91e-12 2.83e-12 3.8e-12 4.75e-12 5.69e-12 6.55e-12 8.23e-12 9.74e-12 1.11e-11 1.22e-11 1.32e-11 1.41e-11 1.49e-11 1.55e-11 1.61e-11 1.65e-11 
08 01 07  12 01 12 1.64e-17 1.34e-15 1.22e-14 1.12e-13 3.41e-13 6.66e-13 1.04e-12 1.44e-12 1.84e-12 2.22e-12 2.59e-12 3.27e-12 3.88e-12 4.42e-12 4.9e-12 5.33e-12 5.71e-12 6.07e-12 6.38e-12 6.66e-12 6.92e-12 
08 01 07  12 01 11 1.32e-18 2.19e-16 2.9e-15 3.97e-14 1.52e-13 3.46e-13 6.1e-13 9.26e-13 1.28e-12 1.66e-12 2.07e-12 2.93e-12 3.86e-12 4.85e-12 5.89e-12 6.96e-12 8.12e-12 9.3e-12 1.06e-11 1.18e-11 1.32e-11 
08 01 07  03 03 01 6.15e-13 5.67e-13 5.37e-13 5.18e-13 5.32e-13 5.64e-13 6.06e-13 6.51e-13 6.98e-13 7.42e-13 7.83e-13 8.52e-13 9.11e-13 9.62e-13 1.01e-12 1.04e-12 1.07e-12 1.11e-12 1.14e-12 1.17e-12 1.2e-12 
08 01 07  03 03 00 6.08e-13 6.27e-13 6.69e-13 7.95e-13 9.35e-13 1.08e-12 1.22e-12 1.35e-12 1.48e-12 1.58e-12 1.68e-12 1.83e-12 1.95e-12 2.04e-12 2.11e-12 2.16e-12 2.2e-12 2.23e-12 2.25e-12 2.26e-12 2.26e-12 
08 01 07  04 03 02 2.28e-12 2.43e-12 2.58e-12 2.9e-12 3.2e-12 3.47e-12 3.7e-12 3.9e-12 4.06e-12 4.2e-12 4.32e-12 4.51e-12 4.64e-12 4.75e-12 4.83e-12 4.88e-12 4.94e-12 4.97e-12 5e-12 5.02e-12 5.04e-12 
08 01 07  04 03 01 2.08e-12 2.11e-12 2.14e-12 2.21e-12 2.3e-12 2.41e-12 2.52e-12 2.62e-12 2.71e-12 2.8e-12 2.88e-12 3.01e-12 3.12e-12 3.22e-12 3.3e-12 3.37e-12 3.43e-12 3.49e-12 3.54e-12 3.59e-12 3.64e-12 
08 01 07  05 03 03 7.8e-13 1.36e-12 1.8e-12 2.41e-12 2.81e-12 3.12e-12 3.36e-12 3.55e-12 3.72e-12 3.86e-12 3.99e-12 4.2e-12 4.36e-12 4.49e-12 4.59e-12 4.68e-12 4.74e-12 4.8e-12 4.84e-12 4.87e-12 4.9e-12 
08 01 07  05 03 02 8.42e-13 1.59e-12 2.24e-12 3.21e-12 3.88e-12 4.38e-12 4.75e-12 5.05e-12 5.31e-12 5.48e-12 5.64e-12 5.91e-12 6.15e-12 6.3e-12 6.43e-12 6.55e-12 6.66e-12 6.7e-12 6.8e-12 6.89e-12 6.98e-12 
08 01 07  06 03 04 7.59e-14 2.82e-13 5.61e-13 1.17e-12 1.73e-12 2.23e-12 2.67e-12 3.05e-12 3.39e-12 3.69e-12 3.96e-12 4.41e-12 4.77e-12 5.08e-12 5.33e-12 5.55e-12 5.73e-12 5.9e-12 6.04e-12 6.16e-12 6.27e-12 
08 01 07  06 03 03 6.84e-14 2.55e-13 5.01e-13 1.03e-12 1.52e-12 1.96e-12 2.35e-12 2.71e-12 3.02e-12 3.3e-12 3.54e-12 3.96e-12 4.27e-12 4.52e-12 4.72e-12 4.87e-12 4.99e-12 5.09e-12 5.16e-12 5.22e-12 5.26e-12 
08 01 07  07 03 05 5.15e-15 4.16e-14 1.19e-13 3.51e-13 6.11e-13 8.64e-13 1.1e-12 1.32e-12 1.52e-12 1.71e-12 1.89e-12 2.21e-12 2.5e-12 2.75e-12 2.98e-12 3.18e-12 3.37e-12 3.54e-12 3.7e-12 3.84e-12 3.97e-12 
08 01 07  07 03 04 4e-15 3.34e-14 1.01e-13 3.27e-13 6.18e-13 9.25e-13 1.22e-12 1.51e-12 1.79e-12 2.04e-12 2.29e-12 2.75e-12 3.16e-12 3.57e-12 3.94e-12 4.31e-12 4.66e-12 5.01e-12 5.34e-12 5.68e-12 6.01e-12 
08 01 07  08 03 06 3.67e-16 7.38e-15 3.37e-14 1.59e-13 3.56e-13 5.89e-13 8.36e-13 1.09e-12 1.34e-12 1.58e-12 1.82e-12 2.27e-12 2.7e-12 3.1e-12 3.48e-12 3.84e-12 4.19e-12 4.53e-12 4.85e-12 5.16e-12 5.47e-12 
08 01 07  08 03 05 6.3e-16 1.21e-14 5.24e-14 2.28e-13 4.8e-13 7.61e-13 1.05e-12 1.33e-12 1.61e-12 1.87e-12 2.12e-12 2.59e-12 3.03e-12 3.43e-12 3.8e-12 4.15e-12 4.48e-12 4.78e-12 5.08e-12 5.36e-12 5.62e-12 
08 01 07  09 03 07 4.03e-17 2.23e-15 1.66e-14 1.25e-13 3.48e-13 6.51e-13 9.99e-13 1.36e-12 1.73e-12 2.1e-12 2.45e-12 3.12e-12 3.75e-12 4.32e-12 4.85e-12 5.34e-12 5.81e-12 6.24e-12 6.65e-12 7.05e-12 7.42e-12 
08 01 07  09 03 06 1.35e-17 7.67e-16 5.81e-15 4.4e-14 1.22e-13 2.25e-13 3.41e-13 4.61e-13 5.8e-13 6.98e-13 8.12e-13 1.04e-12 1.25e-12 1.45e-12 1.65e-12 1.84e-12 2.02e-12 2.2e-12 2.38e-12 2.55e-12 2.72e-12 
08 01 07  10 03 08 1.1e-18 2.02e-16 2.68e-15 3.46e-14 1.22e-13 2.59e-13 4.26e-13 6.11e-13 8e-13 9.91e-13 1.18e-12 1.54e-12 1.87e-12 2.18e-12 2.48e-12 2.76e-12 3.03e-12 3.28e-12 3.53e-12 3.77e-12 4e-12 
08 01 07  10 03 07 5.54e-19 1.05e-16 1.44e-15 1.99e-14 7.57e-14 1.71e-13 3e-13 4.52e-13 6.2e-13 7.97e-13 9.79e-13 1.35e-12 1.7e-12 2.04e-12 2.36e-12 2.66e-12 2.94e-12 3.2e-12 3.44e-12 3.67e-12 3.87e-12 
09 01 09  01 01 01 7.46e-13 7.69e-13 7.86e-13 8.18e-13 8.51e-13 8.82e-13 9.13e-13 9.42e-13 9.71e-13 9.99e-13 1.03e-12 1.08e-12 1.13e-12 1.17e-12 1.21e-12 1.25e-12 1.28e-12 1.31e-12 1.34e-12 1.36e-12 1.38e-12 
09 01 09  01 01 00 8.76e-13 9.25e-13 9.6e-13 1.01e-12 1.06e-12 1.12e-12 1.17e-12 1.23e-12 1.28e-12 1.33e-12 1.39e-12 1.49e-12 1.58e-12 1.68e-12 1.77e-12 1.86e-12 1.95e-12 2.04e-12 2.13e-12 2.22e-12 2.32e-12 
09 01 09  02 01 02 6.9e-13 7.88e-13 8.75e-13 1.02e-12 1.15e-12 1.27e-12 1.37e-12 1.47e-12 1.56e-12 1.64e-12 1.73e-12 1.89e-12 2.05e-12 2.21e-12 2.36e-12 2.51e-12 2.66e-12 2.8e-12 2.95e-12 3.09e-12 3.23e-12 
09 01 09  02 01 01 1.57e-12 1.6e-12 1.62e-12 1.67e-12 1.73e-12 1.78e-12 1.84e-12 1.89e-12 1.94e-12 1.99e-12 2.04e-12 2.12e-12 2.19e-12 2.25e-12 2.3e-12 2.34e-12 2.38e-12 2.4e-12 2.43e-12 2.45e-12 2.46e-12 
09 01 09  03 01 03 1.58e-12 1.65e-12 1.71e-12 1.82e-12 1.93e-12 2.04e-12 2.14e-12 2.25e-12 2.35e-12 2.44e-12 2.53e-12 2.71e-12 2.87e-12 3.03e-12 3.19e-12 3.34e-12 3.49e-12 3.65e-12 3.8e-12 3.96e-12 4.12e-12 
09 01 09  03 01 02 2.17e-12 2.33e-12 2.45e-12 2.67e-12 2.86e-12 3.02e-12 3.17e-12 3.31e-12 3.44e-12 3.56e-12 3.67e-12 3.87e-12 4.06e-12 4.24e-12 4.4e-12 4.56e-12 4.72e-12 4.87e-12 5.02e-12 5.17e-12 5.31e-12 
09 01 09  04 01 04 3.84e-12 4e-12 4.1e-12 4.27e-12 4.44e-12 4.6e-12 4.77e-12 4.94e-12 5.12e-12 5.3e-12 5.47e-12 5.8e-12 6.12e-12 6.42e-12 6.7e-12 6.97e-12 7.21e-12 7.45e-12 7.67e-12 7.88e-12 8.08e-12 
09 01 09  04 01 03 3.7e-12 3.84e-12 3.95e-12 4.15e-12 4.34e-12 4.52e-12 4.68e-12 4.83e-12 4.95e-12 5.06e-12 5.16e-12 5.3e-12 5.41e-12 5.47e-12 5.52e-12 5.55e-12 5.57e-12 5.58e-12 5.59e-12 5.58e-12 5.58e-12 
09 01 09  05 01 05 4.25e-12 4.19e-12 4.14e-12 4.14e-12 4.25e-12 4.41e-12 4.59e-12 4.8e-12 5.02e-12 5.24e-12 5.48e-12 5.95e-12 6.44e-12 6.93e-12 7.43e-12 7.94e-12 8.45e-12 8.97e-12 9.49e-12 1e-11 1.05e-11 
09 01 09  05 01 04 6.73e-12 7.18e-12 7.51e-12 8.02e-12 8.4e-12 8.71e-12 8.98e-12 9.2e-12 9.4e-12 9.58e-12 9.74e-12 1e-11 1.02e-11 1.04e-11 1.06e-11 1.07e-11 1.08e-11 1.1e-11 1.11e-11 1.12e-11 1.13e-11 
09 01 09  06 01 06 4.36e-12 4.5e-12 4.65e-12 5.02e-12 5.45e-12 5.91e-12 6.36e-12 6.8e-12 7.21e-12 7.6e-12 7.97e-12 8.63e-12 9.21e-12 9.71e-12 1.01e-11 1.05e-11 1.08e-11 1.11e-11 1.13e-11 1.15e-11 1.16e-11 
09 01 09  06 01 05 1e-11 1.01e-11 1.01e-11 1.01e-11 1.02e-11 1.04e-11 1.06e-11 1.08e-11 1.09e-11 1.1e-11 1.12e-11 1.13e-11 1.14e-11 1.14e-11 1.14e-11 1.14e-11 1.13e-11 1.13e-11 1.12e-11 1.12e-11 1.11e-11 
09 01 09  07 01 07 5.1e-12 5.51e-12 5.9e-12 6.69e-12 7.53e-12 8.42e-12 9.33e-12 1.02e-11 1.12e-11 1.21e-11 1.3e-11 1.47e-11 1.64e-11 1.8e-11 1.95e-11 2.09e-11 2.22e-11 2.35e-11 2.47e-11 2.58e-11 2.69e-11 
09 01 09  07 01 06 1.17e-11 1.21e-11 1.23e-11 1.26e-11 1.29e-11 1.32e-11 1.34e-11 1.37e-11 1.39e-11 1.4e-11 1.42e-11 1.45e-11 1.47e-11 1.48e-11 1.5e-11 1.51e-11 1.52e-11 1.53e-11 1.54e-11 1.55e-11 1.56e-11 
09 01 09  08 01 08 4.25e-11 4.39e-11 4.49e-11 4.62e-11 4.73e-11 4.81e-11 4.88e-11 4.94e-11 4.99e-11 5.02e-11 5.05e-11 5.09e-11 5.11e-11 5.12e-11 5.11e-11 5.09e-11 5.06e-11 5.03e-11 4.99e-11 4.95e-11 4.9e-11 
09 01 09  08 01 07 1.28e-11 1.28e-11 1.26e-11 1.23e-11 1.22e-11 1.22e-11 1.22e-11 1.22e-11 1.23e-11 1.24e-11 1.25e-11 1.26e-11 1.27e-11 1.28e-11 1.29e-11 1.29e-11 1.3e-11 1.3e-11 1.31e-11 1.31e-11 1.31e-11 
09 01 09  09 01 09 0 0 0 0 0 0 0 0 0 0 0 0 0 0 0 0 0 0 0 0 0 
09 01 09  09 01 08 1.8e-12 2.8e-12 3.51e-12 4.51e-12 5.22e-12 5.8e-12 6.3e-12 6.72e-12 7.09e-12 7.4e-12 7.65e-12 8.03e-12 8.28e-12 8.43e-12 8.54e-12 8.61e-12 8.67e-12 8.72e-12 8.78e-12 8.85e-12 8.93e-12 
09 01 09  10 01 10 1.69e-12 5.17e-12 9.1e-12 1.61e-11 2.15e-11 2.56e-11 2.88e-11 3.12e-11 3.33e-11 3.5e-11 3.64e-11 3.86e-11 4.04e-11 4.17e-11 4.27e-11 4.35e-11 4.41e-11 4.44e-11 4.47e-11 4.49e-11 4.48e-11 
09 01 09  10 01 09 1e-13 4.91e-13 1.09e-12 2.44e-12 3.66e-12 4.66e-12 5.5e-12 6.14e-12 6.73e-12 7.25e-12 7.7e-12 8.4e-12 9.04e-12 9.59e-12 1.02e-11 1.06e-11 1.11e-11 1.16e-11 1.2e-11 1.25e-11 1.3e-11 
09 01 09  11 01 11 6.1e-15 6.79e-14 2.32e-13 8.27e-13 1.63e-12 2.53e-12 3.49e-12 4.48e-12 5.49e-12 6.49e-12 7.5e-12 9.45e-12 1.14e-11 1.32e-11 1.5e-11 1.68e-11 1.85e-11 2.01e-11 2.16e-11 2.32e-11 2.48e-11 
09 01 09  11 01 10 9.62e-16 1.62e-14 6.67e-14 2.75e-13 5.63e-13 8.76e-13 1.19e-12 1.49e-12 1.79e-12 2.09e-12 2.37e-12 2.91e-12 3.43e-12 3.93e-12 4.42e-12 4.88e-12 5.32e-12 5.75e-12 6.16e-12 6.57e-12 6.95e-12 
09 01 09  12 01 12 9.89e-17 3.96e-15 2.58e-14 1.77e-13 4.88e-13 9.26e-13 1.45e-12 2.03e-12 2.65e-12 3.28e-12 3.92e-12 5.2e-12 6.47e-12 7.67e-12 8.85e-12 1e-11 1.11e-11 1.22e-11 1.32e-11 1.42e-11 1.52e-11 
09 01 09  12 01 11 1.15e-17 8.87e-16 7.9e-15 7.29e-14 2.3e-13 4.7e-13 7.74e-13 1.12e-12 1.5e-12 1.89e-12 2.29e-12 3.08e-12 3.85e-12 4.58e-12 5.27e-12 5.91e-12 6.5e-12 7.05e-12 7.55e-12 8.03e-12 8.46e-12 
09 01 09  03 03 01 1.16e-12 1.33e-12 1.49e-12 1.81e-12 2.13e-12 2.44e-12 2.73e-12 2.99e-12 3.23e-12 3.44e-12 3.63e-12 3.94e-12 4.18e-12 4.38e-12 4.57e-12 4.7e-12 4.79e-12 4.9e-12 5.01e-12 5.09e-12 5.16e-12 
09 01 09  03 03 00 9.36e-13 1.14e-12 1.32e-12 1.67e-12 1.99e-12 2.27e-12 2.53e-12 2.76e-12 2.97e-12 3.16e-12 3.32e-12 3.6e-12 3.82e-12 3.98e-12 4.12e-12 4.22e-12 4.3e-12 4.38e-12 4.41e-12 4.45e-12 4.46e-12 
09 01 09  04 03 02 1.67e-12 1.82e-12 1.92e-12 2.09e-12 2.24e-12 2.39e-12 2.53e-12 2.67e-12 2.79e-12 2.9e-12 3.01e-12 3.19e-12 3.33e-12 3.45e-12 3.54e-12 3.62e-12 3.68e-12 3.74e-12 3.79e-12 3.83e-12 3.86e-12 
09 01 09  04 03 01 1.4e-12 1.62e-12 1.81e-12 2.17e-12 2.51e-12 2.8e-12 3.06e-12 3.3e-12 3.5e-12 3.68e-12 3.83e-12 4.08e-12 4.26e-12 4.4e-12 4.51e-12 4.58e-12 4.64e-12 4.68e-12 4.71e-12 4.72e-12 4.72e-12 
09 01 09  05 03 03 1.28e-12 1.33e-12 1.37e-12 1.5e-12 1.66e-12 1.85e-12 2.05e-12 2.25e-12 2.44e-12 2.62e-12 2.78e-12 3.07e-12 3.32e-12 3.53e-12 3.72e-12 3.89e-12 4.05e-12 4.2e-12 4.35e-12 4.49e-12 4.63e-12 
09 01 09  05 03 02 1.66e-12 1.92e-12 2.17e-12 2.6e-12 2.97e-12 3.3e-12 3.59e-12 3.84e-12 4.06e-12 4.25e-12 4.41e-12 4.67e-12 4.85e-12 4.98e-12 5.07e-12 5.13e-12 5.16e-12 5.18e-12 5.17e-12 5.15e-12 5.12e-12 
09 01 09  06 03 04 4.69e-13 8.76e-13 1.25e-12 1.9e-12 2.47e-12 2.98e-12 3.44e-12 3.84e-12 4.2e-12 4.52e-12 4.79e-12 5.23e-12 5.55e-12 5.78e-12 5.94e-12 6.05e-12 6.12e-12 6.15e-12 6.17e-12 6.15e-12 6.13e-12 
09 01 09  06 03 03 1.07e-12 1.81e-12 2.34e-12 3.06e-12 3.56e-12 3.96e-12 4.3e-12 4.58e-12 4.84e-12 5.06e-12 5.26e-12 5.57e-12 5.81e-12 6e-12 6.15e-12 6.27e-12 6.37e-12 6.48e-12 6.57e-12 6.6e-12 6.69e-12 
09 01 09  07 03 05 8.83e-14 3.25e-13 6.23e-13 1.2e-12 1.69e-12 2.1e-12 2.45e-12 2.75e-12 3.03e-12 3.28e-12 3.51e-12 3.92e-12 4.29e-12 4.61e-12 4.88e-12 5.13e-12 5.35e-12 5.53e-12 5.69e-12 5.82e-12 5.93e-12 
09 01 09  07 03 04 3.4e-14 1.3e-13 2.59e-13 5.38e-13 8.06e-13 1.06e-12 1.29e-12 1.52e-12 1.73e-12 1.93e-12 2.12e-12 2.48e-12 2.8e-12 3.09e-12 3.36e-12 3.59e-12 3.8e-12 3.99e-12 4.17e-12 4.32e-12 4.47e-12 
09 01 09  08 03 06 8.07e-15 7.67e-14 2.38e-13 7.51e-13 1.36e-12 1.95e-12 2.51e-12 3.03e-12 3.49e-12 3.93e-12 4.32e-12 5.01e-12 5.62e-12 6.14e-12 6.62e-12 7.07e-12 7.42e-12 7.82e-12 8.2e-12 8.49e-12 8.77e-12 
09 01 09  08 03 05 3.41e-15 3.07e-14 9.02e-14 2.6e-13 4.36e-13 5.99e-13 7.49e-13 8.84e-13 1.01e-12 1.13e-12 1.25e-12 1.47e-12 1.67e-12 1.88e-12 2.08e-12 2.28e-12 2.48e-12 2.67e-12 2.86e-12 3.05e-12 3.24e-12 
09 01 09  09 03 07 2.71e-16 7.33e-15 3.83e-14 2.01e-13 4.68e-13 7.86e-13 1.12e-12 1.46e-12 1.79e-12 2.11e-12 2.41e-12 2.98e-12 3.5e-12 3.98e-12 4.42e-12 4.82e-12 5.19e-12 5.54e-12 5.87e-12 6.16e-12 6.45e-12 
09 01 09  09 03 06 3.16e-16 8.43e-15 4.34e-14 2.22e-13 5.01e-13 8.2e-13 1.14e-12 1.45e-12 1.75e-12 2.03e-12 2.29e-12 2.77e-12 3.21e-12 3.61e-12 3.98e-12 4.34e-12 4.68e-12 5e-12 5.31e-12 5.62e-12 5.91e-12 
09 01 09  10 03 08 4.93e-18 4.55e-16 4.39e-15 4.26e-14 1.33e-13 2.65e-13 4.22e-13 5.92e-13 7.64e-13 9.36e-13 1.11e-12 1.44e-12 1.74e-12 2.04e-12 2.31e-12 2.57e-12 2.83e-12 3.06e-12 3.3e-12 3.52e-12 3.73e-12 
09 01 09  10 03 07 1.26e-17 1.11e-15 1.02e-14 9.2e-14 2.73e-13 5.22e-13 8.09e-13 1.11e-12 1.41e-12 1.71e-12 2.01e-12 2.58e-12 3.11e-12 3.61e-12 4.09e-12 4.54e-12 4.97e-12 5.38e-12 5.77e-12 6.15e-12 6.52e-12 
09 01 08  01 01 01 2.74e-14 2.77e-14 2.89e-14 3.33e-14 4.03e-14 5.03e-14 6.33e-14 7.94e-14 9.85e-14 1.2e-13 1.45e-13 2e-13 2.63e-13 3.33e-13 4.07e-13 4.86e-13 5.69e-13 6.55e-13 7.45e-13 8.38e-13 9.33e-13 
09 01 08  01 01 00 7.08e-14 7.33e-14 7.85e-14 9.39e-14 1.14e-13 1.37e-13 1.63e-13 1.9e-13 2.18e-13 2.47e-13 2.76e-13 3.34e-13 3.9e-13 4.44e-13 4.95e-13 5.43e-13 5.89e-13 6.33e-13 6.75e-13 7.15e-13 7.54e-13 
09 01 08  02 01 02 1.74e-13 1.76e-13 1.85e-13 2.17e-13 2.61e-13 3.14e-13 3.71e-13 4.32e-13 4.94e-13 5.57e-13 6.19e-13 7.39e-13 8.52e-13 9.57e-13 1.05e-12 1.14e-12 1.22e-12 1.29e-12 1.36e-12 1.42e-12 1.48e-12 
09 01 08  02 01 01 9.87e-14 1.03e-13 1.09e-13 1.3e-13 1.65e-13 2.11e-13 2.68e-13 3.31e-13 4e-13 4.72e-13 5.46e-13 6.95e-13 8.43e-13 9.88e-13 1.13e-12 1.26e-12 1.4e-12 1.52e-12 1.65e-12 1.77e-12 1.89e-12 
09 01 08  03 01 03 1.51e-13 1.55e-13 1.68e-13 2.08e-13 2.63e-13 3.29e-13 4.05e-13 4.88e-13 5.78e-13 6.73e-13 7.71e-13 9.76e-13 1.19e-12 1.4e-12 1.62e-12 1.83e-12 2.05e-12 2.26e-12 2.48e-12 2.69e-12 2.91e-12 
09 01 08  03 01 02 4.74e-13 4.93e-13 5.29e-13 6.26e-13 7.39e-13 8.57e-13 9.75e-13 1.09e-12 1.21e-12 1.32e-12 1.43e-12 1.65e-12 1.87e-12 2.1e-12 2.33e-12 2.56e-12 2.81e-12 3.06e-12 3.33e-12 3.6e-12 3.88e-12 
09 01 08  04 01 04 9.9e-13 9.71e-13 1e-12 1.11e-12 1.24e-12 1.37e-12 1.51e-12 1.65e-12 1.78e-12 1.91e-12 2.04e-12 2.28e-12 2.51e-12 2.73e-12 2.94e-12 3.13e-12 3.31e-12 3.49e-12 3.66e-12 3.82e-12 3.97e-12 
09 01 08  04 01 03 1.06e-12 1.06e-12 1.1e-12 1.25e-12 1.46e-12 1.7e-12 1.96e-12 2.23e-12 2.49e-12 2.74e-12 2.99e-12 3.44e-12 3.84e-12 4.19e-12 4.5e-12 4.77e-12 5e-12 5.21e-12 5.39e-12 5.54e-12 5.67e-12 
09 01 08  05 01 05 1.83e-12 1.81e-12 1.85e-12 1.98e-12 2.13e-12 2.29e-12 2.45e-12 2.61e-12 2.76e-12 2.92e-12 3.07e-12 3.36e-12 3.64e-12 3.91e-12 4.17e-12 4.41e-12 4.65e-12 4.88e-12 5.1e-12 5.32e-12 5.53e-12 
09 01 08  05 01 04 3.74e-12 3.62e-12 3.67e-12 3.89e-12 4.15e-12 4.39e-12 4.63e-12 4.86e-12 5.09e-12 5.32e-12 5.56e-12 6.06e-12 6.58e-12 7.12e-12 7.68e-12 8.25e-12 8.84e-12 9.44e-12 1e-11 1.07e-11 1.13e-11 
09 01 08  06 01 06 5.67e-12 5.56e-12 5.56e-12 5.65e-12 5.77e-12 5.89e-12 6.01e-12 6.13e-12 6.25e-12 6.37e-12 6.49e-12 6.73e-12 6.97e-12 7.22e-12 7.46e-12 7.71e-12 7.96e-12 8.21e-12 8.47e-12 8.73e-12 8.99e-12 
09 01 08  06 01 05 1.12e-11 1.1e-11 1.11e-11 1.14e-11 1.19e-11 1.23e-11 1.28e-11 1.33e-11 1.37e-11 1.41e-11 1.44e-11 1.5e-11 1.55e-11 1.58e-11 1.61e-11 1.64e-11 1.65e-11 1.66e-11 1.67e-11 1.68e-11 1.68e-11 
09 01 08  07 01 07 5.65e-12 5.78e-12 5.87e-12 6.04e-12 6.19e-12 6.34e-12 6.49e-12 6.63e-12 6.76e-12 6.89e-12 7.01e-12 7.22e-12 7.41e-12 7.57e-12 7.73e-12 7.88e-12 8.02e-12 8.17e-12 8.32e-12 8.48e-12 8.63e-12 
09 01 08  07 01 06 1.94e-11 1.89e-11 1.89e-11 1.93e-11 1.98e-11 2.04e-11 2.11e-11 2.17e-11 2.23e-11 2.3e-11 2.36e-11 2.48e-11 2.6e-11 2.71e-11 2.82e-11 2.91e-11 2.99e-11 3.07e-11 3.14e-11 3.2e-11 3.25e-11 
09 01 08  08 01 08 1.15e-11 1.14e-11 1.15e-11 1.16e-11 1.17e-11 1.18e-11 1.19e-11 1.2e-11 1.2e-11 1.21e-11 1.22e-11 1.24e-11 1.26e-11 1.28e-11 1.3e-11 1.33e-11 1.35e-11 1.36e-11 1.38e-11 1.4e-11 1.42e-11 
09 01 08  08 01 07 5.56e-11 5.63e-11 5.69e-11 5.79e-11 5.87e-11 5.93e-11 5.99e-11 6.03e-11 6.06e-11 6.09e-11 6.11e-11 6.12e-11 6.12e-11 6.1e-11 6.08e-11 6.04e-11 6e-11 5.96e-11 5.9e-11 5.85e-11 5.79e-11 
09 01 08  09 01 09 5.09e-12 5.6e-12 5.91e-12 6.38e-12 6.78e-12 7.15e-12 7.49e-12 7.8e-12 8.08e-12 8.31e-12 8.49e-12 8.76e-12 8.92e-12 9e-12 9.05e-12 9.07e-12 9.09e-12 9.11e-12 9.14e-12 9.19e-12 9.25e-12 
09 01 08  09 01 08 0 0 0 0 0 0 0 0 0 0 0 0 0 0 0 0 0 0 0 0 0 
09 01 08  10 01 10 1.24e-12 2.65e-12 3.85e-12 5.48e-12 6.53e-12 7.2e-12 7.71e-12 8.15e-12 8.42e-12 8.7e-12 8.92e-12 9.37e-12 9.73e-12 1e-11 1.04e-11 1.06e-11 1.09e-11 1.12e-11 1.15e-11 1.17e-11 1.2e-11 
09 01 08  10 01 09 1.52e-12 5.07e-12 9.27e-12 1.7e-11 2.3e-11 2.76e-11 3.13e-11 3.42e-11 3.66e-11 3.86e-11 4.03e-11 4.31e-11 4.53e-11 4.7e-11 4.84e-11 4.95e-11 5.05e-11 5.12e-11 5.18e-11 5.23e-11 5.25e-11 
09 01 08  11 01 11 3.1e-14 2.27e-13 6.11e-13 1.64e-12 2.69e-12 3.64e-12 4.46e-12 5.15e-12 5.79e-12 6.36e-12 6.87e-12 7.75e-12 8.48e-12 9.21e-12 9.77e-12 1.04e-11 1.08e-11 1.14e-11 1.18e-11 1.22e-11 1.27e-11 
09 01 08  11 01 10 1.1e-14 1.34e-13 4.73e-13 1.73e-12 3.42e-12 5.23e-12 7.05e-12 8.81e-12 1.05e-11 1.22e-11 1.37e-11 1.66e-11 1.93e-11 2.18e-11 2.42e-11 2.64e-11 2.85e-11 3.05e-11 3.25e-11 3.43e-11 3.61e-11 
09 01 08  12 01 12 5.48e-16 1.52e-14 7.97e-14 4.19e-13 9.55e-13 1.56e-12 2.16e-12 2.71e-12 3.22e-12 3.68e-12 4.08e-12 4.79e-12 5.37e-12 5.86e-12 6.29e-12 6.65e-12 6.98e-12 7.27e-12 7.54e-12 7.77e-12 7.99e-12 
09 01 08  12 01 11 1e-16 5.38e-15 3.98e-14 2.98e-13 8.37e-13 1.57e-12 2.42e-12 3.33e-12 4.27e-12 5.22e-12 6.12e-12 7.85e-12 9.44e-12 1.09e-11 1.22e-11 1.33e-11 1.43e-11 1.51e-11 1.59e-11 1.65e-11 1.71e-11 
09 01 08  03 03 01 4.4e-13 4.87e-13 5.36e-13 6.48e-13 7.64e-13 8.85e-13 1.01e-12 1.13e-12 1.24e-12 1.35e-12 1.44e-12 1.61e-12 1.74e-12 1.85e-12 1.93e-12 2.01e-12 2.07e-12 2.12e-12 2.17e-12 2.22e-12 2.26e-12 
09 01 08  03 03 00 2.27e-13 2.46e-13 2.66e-13 3.2e-13 3.89e-13 4.69e-13 5.56e-13 6.42e-13 7.25e-13 7.97e-13 8.69e-13 9.83e-13 1.08e-12 1.15e-12 1.22e-12 1.27e-12 1.33e-12 1.38e-12 1.43e-12 1.48e-12 1.54e-12 
09 01 08  04 03 02 8.17e-13 8.75e-13 9.45e-13 1.14e-12 1.37e-12 1.61e-12 1.86e-12 2.07e-12 2.28e-12 2.45e-12 2.61e-12 2.84e-12 3e-12 3.12e-12 3.19e-12 3.25e-12 3.28e-12 3.31e-12 3.33e-12 3.34e-12 3.36e-12 
09 01 08  04 03 01 9.66e-13 1.1e-12 1.26e-12 1.61e-12 1.97e-12 2.33e-12 2.66e-12 2.95e-12 3.21e-12 3.44e-12 3.62e-12 3.91e-12 4.11e-12 4.25e-12 4.34e-12 4.4e-12 4.44e-12 4.47e-12 4.5e-12 4.51e-12 4.52e-12 
09 01 08  05 03 03 4.47e-12 4.73e-12 5e-12 5.52e-12 5.99e-12 6.39e-12 6.74e-12 7.02e-12 7.27e-12 7.45e-12 7.59e-12 7.79e-12 7.84e-12 7.92e-12 7.9e-12 7.83e-12 7.78e-12 7.67e-12 7.57e-12 7.54e-12 7.45e-12 
09 01 08  05 03 02 3.37e-12 3.54e-12 3.7e-12 4.04e-12 4.37e-12 4.68e-12 4.96e-12 5.2e-12 5.42e-12 5.6e-12 5.74e-12 5.94e-12 6.05e-12 6.09e-12 6.09e-12 6.07e-12 6.03e-12 5.97e-12 5.91e-12 5.85e-12 5.78e-12 
09 01 08  06 03 04 3.85e-12 4.67e-12 5.13e-12 5.7e-12 6.07e-12 6.42e-12 6.66e-12 6.93e-12 7.12e-12 7.3e-12 7.41e-12 7.6e-12 7.72e-12 7.75e-12 7.78e-12 7.73e-12 7.62e-12 7.57e-12 7.45e-12 7.32e-12 7.26e-12 
09 01 08  06 03 03 3.76e-12 4.8e-12 5.5e-12 6.45e-12 7.1e-12 7.59e-12 7.97e-12 8.33e-12 8.53e-12 8.79e-12 8.9e-12 9.11e-12 9.23e-12 9.27e-12 9.24e-12 9.2e-12 9.16e-12 9.11e-12 8.99e-12 8.93e-12 8.88e-12 
09 01 08  07 03 05 1.82e-13 5.13e-13 8.83e-13 1.57e-12 2.13e-12 2.57e-12 2.93e-12 3.24e-12 3.49e-12 3.72e-12 3.92e-12 4.27e-12 4.55e-12 4.81e-12 5.03e-12 5.23e-12 5.41e-12 5.58e-12 5.73e-12 5.87e-12 6.01e-12 
09 01 08  07 03 04 1.8e-13 4.82e-13 7.99e-13 1.35e-12 1.78e-12 2.13e-12 2.42e-12 2.67e-12 2.89e-12 3.09e-12 3.27e-12 3.58e-12 3.86e-12 4.09e-12 4.3e-12 4.47e-12 4.63e-12 4.77e-12 4.88e-12 4.98e-12 5.06e-12 
09 01 08  08 03 06 8.08e-15 5.55e-14 1.48e-13 4.06e-13 6.89e-13 9.62e-13 1.22e-12 1.45e-12 1.67e-12 1.87e-12 2.05e-12 2.39e-12 2.68e-12 2.93e-12 3.15e-12 3.36e-12 3.54e-12 3.71e-12 3.86e-12 4e-12 4.13e-12 
09 01 08  08 03 05 8.93e-15 6.14e-14 1.65e-13 4.66e-13 8.21e-13 1.19e-12 1.55e-12 1.89e-12 2.21e-12 2.51e-12 2.8e-12 3.31e-12 3.76e-12 4.16e-12 4.53e-12 4.86e-12 5.17e-12 5.45e-12 5.71e-12 5.97e-12 6.2e-12 
09 01 08  09 03 07 5.73e-16 1.08e-14 4.7e-14 2.07e-13 4.39e-13 6.93e-13 9.46e-13 1.19e-12 1.42e-12 1.64e-12 1.84e-12 2.22e-12 2.57e-12 2.91e-12 3.24e-12 3.57e-12 3.89e-12 4.21e-12 4.53e-12 4.85e-12 5.18e-12 
09 01 08  09 03 06 7.22e-16 1.35e-14 5.8e-14 2.5e-13 5.25e-13 8.31e-13 1.14e-12 1.45e-12 1.76e-12 2.05e-12 2.33e-12 2.86e-12 3.35e-12 3.8e-12 4.21e-12 4.57e-12 4.92e-12 5.23e-12 5.52e-12 5.78e-12 6.01e-12 
09 01 08  10 03 08 3.53e-17 2.22e-15 1.74e-14 1.34e-13 3.73e-13 6.91e-13 1.05e-12 1.42e-12 1.8e-12 2.17e-12 2.54e-12 3.25e-12 3.92e-12 4.56e-12 5.17e-12 5.78e-12 6.36e-12 6.92e-12 7.48e-12 8.02e-12 8.56e-12 
09 01 08  10 03 07 1.06e-17 6.81e-16 5.46e-15 4.38e-14 1.25e-13 2.34e-13 3.6e-13 4.93e-13 6.27e-13 7.58e-13 8.9e-13 1.15e-12 1.39e-12 1.63e-12 1.86e-12 2.09e-12 2.31e-12 2.53e-12 2.75e-12 2.96e-12 3.17e-12 
10 01 10  01 01 01 4.33e-13 4.2e-13 4.18e-13 4.25e-13 4.39e-13 4.57e-13 4.78e-13 5e-13 5.24e-13 5.49e-13 5.74e-13 6.23e-13 6.73e-13 7.22e-13 7.7e-13 8.17e-13 8.63e-13 9.09e-13 9.55e-13 1e-12 1.04e-12 
10 01 10  01 01 00 5.59e-13 5.47e-13 5.51e-13 5.71e-13 5.95e-13 6.2e-13 6.45e-13 6.72e-13 7e-13 7.3e-13 7.6e-13 8.25e-13 8.91e-13 9.57e-13 1.02e-12 1.08e-12 1.14e-12 1.2e-12 1.25e-12 1.3e-12 1.34e-12 
10 01 10  02 01 02 7.91e-13 7.54e-13 7.38e-13 7.33e-13 7.46e-13 7.71e-13 8.02e-13 8.39e-13 8.8e-13 9.22e-13 9.66e-13 1.06e-12 1.15e-12 1.24e-12 1.32e-12 1.41e-12 1.49e-12 1.57e-12 1.65e-12 1.72e-12 1.8e-12 
10 01 10  02 01 01 8.87e-13 8.61e-13 8.58e-13 8.73e-13 9.01e-13 9.37e-13 9.77e-13 1.02e-12 1.06e-12 1.11e-12 1.16e-12 1.25e-12 1.33e-12 1.42e-12 1.51e-12 1.59e-12 1.67e-12 1.76e-12 1.84e-12 1.92e-12 2e-12 
10 01 10  03 01 03 1.09e-12 1.09e-12 1.12e-12 1.2e-12 1.29e-12 1.37e-12 1.45e-12 1.52e-12 1.6e-12 1.67e-12 1.74e-12 1.88e-12 2.02e-12 2.16e-12 2.3e-12 2.44e-12 2.58e-12 2.72e-12 2.86e-12 3.01e-12 3.15e-12 
10 01 10  03 01 02 1.61e-12 1.55e-12 1.53e-12 1.54e-12 1.58e-12 1.63e-12 1.68e-12 1.74e-12 1.8e-12 1.86e-12 1.92e-12 2.04e-12 2.16e-12 2.27e-12 2.37e-12 2.47e-12 2.56e-12 2.64e-12 2.71e-12 2.78e-12 2.85e-12 
10 01 10  04 01 04 1.84e-12 1.78e-12 1.77e-12 1.79e-12 1.83e-12 1.87e-12 1.91e-12 1.96e-12 2e-12 2.05e-12 2.1e-12 2.22e-12 2.36e-12 2.51e-12 2.67e-12 2.85e-12 3.03e-12 3.23e-12 3.43e-12 3.65e-12 3.87e-12 
10 01 10  04 01 03 2.76e-12 2.7e-12 2.72e-12 2.82e-12 2.93e-12 3.03e-12 3.13e-12 3.22e-12 3.31e-12 3.39e-12 3.47e-12 3.62e-12 3.76e-12 3.9e-12 4.04e-12 4.18e-12 4.33e-12 4.48e-12 4.63e-12 4.79e-12 4.95e-12 
10 01 10  05 01 05 3.68e-12 3.54e-12 3.49e-12 3.48e-12 3.55e-12 3.66e-12 3.79e-12 3.95e-12 4.12e-12 4.31e-12 4.49e-12 4.88e-12 5.27e-12 5.66e-12 6.05e-12 6.44e-12 6.83e-12 7.22e-12 7.61e-12 8.01e-12 8.4e-12 
10 01 10  05 01 04 4.45e-12 4.27e-12 4.21e-12 4.19e-12 4.21e-12 4.24e-12 4.27e-12 4.3e-12 4.33e-12 4.35e-12 4.38e-12 4.44e-12 4.49e-12 4.55e-12 4.62e-12 4.68e-12 4.74e-12 4.8e-12 4.87e-12 4.93e-12 4.99e-12 
10 01 10  06 01 06 2.58e-12 2.45e-12 2.39e-12 2.35e-12 2.39e-12 2.47e-12 2.58e-12 2.72e-12 2.89e-12 3.07e-12 3.27e-12 3.71e-12 4.2e-12 4.72e-12 5.27e-12 5.85e-12 6.44e-12 7.06e-12 7.69e-12 8.33e-12 8.99e-12 
10 01 10  06 01 05 8.36e-12 8.08e-12 7.99e-12 7.98e-12 8.03e-12 8.08e-12 8.14e-12 8.18e-12 8.23e-12 8.27e-12 8.32e-12 8.41e-12 8.52e-12 8.65e-12 8.79e-12 8.94e-12 9.11e-12 9.3e-12 9.49e-12 9.7e-12 9.92e-12 
10 01 10  07 01 07 4.5e-12 4.55e-12 4.73e-12 5.21e-12 5.74e-12 6.27e-12 6.79e-12 7.28e-12 7.74e-12 8.17e-12 8.57e-12 9.28e-12 9.9e-12 1.04e-11 1.09e-11 1.13e-11 1.16e-11 1.19e-11 1.22e-11 1.24e-11 1.26e-11 
10 01 10  07 01 06 9.81e-12 9.27e-12 8.92e-12 8.47e-12 8.18e-12 7.97e-12 7.81e-12 7.7e-12 7.61e-12 7.56e-12 7.52e-12 7.49e-12 7.52e-12 7.58e-12 7.68e-12 7.81e-12 7.95e-12 8.11e-12 8.29e-12 8.48e-12 8.68e-12 
10 01 10  08 01 08 6.48e-12 6.62e-12 6.88e-12 7.53e-12 8.27e-12 9.08e-12 9.93e-12 1.08e-11 1.17e-11 1.26e-11 1.35e-11 1.53e-11 1.7e-11 1.86e-11 2.02e-11 2.17e-11 2.32e-11 2.46e-11 2.61e-11 2.74e-11 2.88e-11 
10 01 10  08 01 07 1.12e-11 1.09e-11 1.07e-11 1.06e-11 1.05e-11 1.05e-11 1.06e-11 1.06e-11 1.07e-11 1.07e-11 1.08e-11 1.09e-11 1.1e-11 1.12e-11 1.13e-11 1.14e-11 1.15e-11 1.16e-11 1.17e-11 1.19e-11 1.2e-11 
10 01 10  09 01 09 4.49e-11 4.45e-11 4.46e-11 4.49e-11 4.52e-11 4.55e-11 4.57e-11 4.58e-11 4.59e-11 4.61e-11 4.62e-11 4.63e-11 4.65e-11 4.66e-11 4.66e-11 4.66e-11 4.65e-11 4.63e-11 4.61e-11 4.58e-11 4.54e-11 
10 01 10  09 01 08 1.16e-11 1.14e-11 1.12e-11 1.08e-11 1.06e-11 1.04e-11 1.03e-11 1.03e-11 1.02e-11 1.02e-11 1.02e-11 1.03e-11 1.04e-11 1.05e-11 1.07e-11 1.08e-11 1.1e-11 1.12e-11 1.14e-11 1.15e-11 1.17e-11 
10 01 10  10 01 10 0 0 0 0 0 0 0 0 0 0 0 0 0 0 0 0 0 0 0 0 0 
10 01 10  10 01 09 1.03e-12 1.6e-12 1.98e-12 2.43e-12 2.7e-12 2.89e-12 3.06e-12 3.21e-12 3.36e-12 3.51e-12 3.67e-12 4e-12 4.35e-12 4.7e-12 5.05e-12 5.4e-12 5.75e-12 6.1e-12 6.44e-12 6.77e-12 7.11e-12 
10 01 10  11 01 11 1.3e-12 4.41e-12 8.15e-12 1.51e-11 2.05e-11 2.47e-11 2.8e-11 3.06e-11 3.28e-11 3.46e-11 3.61e-11 3.87e-11 4.07e-11 4.23e-11 4.37e-11 4.47e-11 4.56e-11 4.63e-11 4.69e-11 4.74e-11 4.77e-11 
10 01 10  11 01 10 5.09e-14 2.9e-13 7.04e-13 1.75e-12 2.81e-12 3.76e-12 4.62e-12 5.33e-12 5.97e-12 6.54e-12 7.07e-12 7.99e-12 8.74e-12 9.47e-12 1.01e-11 1.08e-11 1.14e-11 1.2e-11 1.25e-11 1.31e-11 1.36e-11 
10 01 10  12 01 12 3.29e-15 4.28e-14 1.58e-13 6.08e-13 1.25e-12 1.98e-12 2.77e-12 3.58e-12 4.42e-12 5.27e-12 6.13e-12 7.79e-12 9.43e-12 1.11e-11 1.27e-11 1.43e-11 1.59e-11 1.74e-11 1.89e-11 2.04e-11 2.19e-11 
10 01 10  12 01 11 3.11e-16 7.55e-15 3.74e-14 1.85e-13 4.14e-13 6.79e-13 9.51e-13 1.22e-12 1.48e-12 1.72e-12 1.96e-12 2.41e-12 2.8e-12 3.16e-12 3.48e-12 3.78e-12 4.04e-12 4.28e-12 4.5e-12 4.68e-12 4.86e-12 
10 01 10  03 03 01 1.32e-12 1.34e-12 1.39e-12 1.54e-12 1.68e-12 1.81e-12 1.94e-12 2.05e-12 2.14e-12 2.24e-12 2.32e-12 2.47e-12 2.59e-12 2.69e-12 2.77e-12 2.83e-12 2.88e-12 2.91e-12 2.93e-12 2.95e-12 2.94e-12 
10 01 10  03 03 00 1.16e-12 1.19e-12 1.26e-12 1.46e-12 1.69e-12 1.92e-12 2.12e-12 2.31e-12 2.49e-12 2.65e-12 2.79e-12 3.04e-12 3.23e-12 3.4e-12 3.52e-12 3.62e-12 3.71e-12 3.77e-12 3.82e-12 3.86e-12 3.88e-12 
10 01 10  04 03 02 2.27e-12 2.28e-12 2.34e-12 2.5e-12 2.67e-12 2.83e-12 2.97e-12 3.11e-12 3.23e-12 3.34e-12 3.43e-12 3.59e-12 3.73e-12 3.84e-12 3.92e-12 3.98e-12 4.02e-12 4.06e-12 4.07e-12 4.08e-12 4.06e-12 
10 01 10  04 03 01 1.84e-12 1.87e-12 1.95e-12 2.15e-12 2.35e-12 2.53e-12 2.69e-12 2.83e-12 2.95e-12 3.06e-12 3.15e-12 3.3e-12 3.43e-12 3.53e-12 3.63e-12 3.71e-12 3.79e-12 3.87e-12 3.94e-12 4e-12 4.07e-12 
10 01 10  05 03 03 2.03e-12 2.02e-12 2.03e-12 2.07e-12 2.13e-12 2.2e-12 2.27e-12 2.34e-12 2.41e-12 2.48e-12 2.53e-12 2.65e-12 2.74e-12 2.82e-12 2.89e-12 2.94e-12 2.98e-12 3e-12 3.02e-12 3.03e-12 3.03e-12 
10 01 10  05 03 02 1.55e-12 1.61e-12 1.71e-12 1.93e-12 2.18e-12 2.41e-12 2.63e-12 2.82e-12 3e-12 3.16e-12 3.31e-12 3.56e-12 3.78e-12 3.98e-12 4.17e-12 4.33e-12 4.49e-12 4.65e-12 4.79e-12 4.94e-12 5.08e-12 
10 01 10  06 03 04 1.2e-12 1.22e-12 1.24e-12 1.32e-12 1.42e-12 1.53e-12 1.66e-12 1.78e-12 1.9e-12 2.02e-12 2.13e-12 2.34e-12 2.53e-12 2.7e-12 2.85e-12 2.98e-12 3.11e-12 3.22e-12 3.32e-12 3.42e-12 3.5e-12 
10 01 10  06 03 03 2.48e-12 2.65e-12 2.81e-12 3.14e-12 3.38e-12 3.56e-12 3.71e-12 3.84e-12 3.95e-12 4.04e-12 4.12e-12 4.27e-12 4.41e-12 4.54e-12 4.65e-12 4.75e-12 4.85e-12 4.95e-12 5.03e-12 5.12e-12 5.19e-12 
10 01 10  07 03 05 1.1e-12 1.45e-12 1.71e-12 2.14e-12 2.49e-12 2.79e-12 3.04e-12 3.25e-12 3.42e-12 3.58e-12 3.72e-12 3.94e-12 4.13e-12 4.27e-12 4.39e-12 4.49e-12 4.58e-12 4.66e-12 4.71e-12 4.76e-12 4.8e-12 
10 01 10  07 03 04 2.51e-12 3.05e-12 3.29e-12 3.5e-12 3.6e-12 3.69e-12 3.77e-12 3.85e-12 3.94e-12 4.02e-12 4.12e-12 4.3e-12 4.48e-12 4.66e-12 4.85e-12 5.04e-12 5.22e-12 5.4e-12 5.58e-12 5.76e-12 5.94e-12 
10 01 10  08 03 06 1.62e-13 4.96e-13 8.66e-13 1.53e-12 2.07e-12 2.52e-12 2.91e-12 3.25e-12 3.55e-12 3.83e-12 4.09e-12 4.54e-12 4.94e-12 5.3e-12 5.63e-12 5.93e-12 6.21e-12 6.46e-12 6.71e-12 6.93e-12 7.14e-12 
10 01 10  08 03 05 6.96e-14 2.23e-13 4.05e-13 7.66e-13 1.09e-12 1.38e-12 1.64e-12 1.88e-12 2.1e-12 2.31e-12 2.5e-12 2.86e-12 3.18e-12 3.48e-12 3.77e-12 4.03e-12 4.28e-12 4.52e-12 4.76e-12 4.97e-12 5.19e-12 
10 01 10  09 03 07 1.3e-14 1.13e-13 3.34e-13 9.9e-13 1.72e-12 2.41e-12 3.03e-12 3.61e-12 4.14e-12 4.58e-12 5.02e-12 5.81e-12 6.45e-12 7.02e-12 7.54e-12 8.02e-12 8.46e-12 8.81e-12 9.14e-12 9.45e-12 9.74e-12 
10 01 10  09 03 06 4.58e-15 3.87e-14 1.1e-13 3.05e-13 5e-13 6.69e-13 8.12e-13 9.39e-13 1.05e-12 1.16e-12 1.25e-12 1.43e-12 1.61e-12 1.77e-12 1.93e-12 2.09e-12 2.24e-12 2.39e-12 2.54e-12 2.68e-12 2.83e-12 
10 01 10  10 03 08 2.67e-16 7.86e-15 4.25e-14 2.3e-13 5.34e-13 8.92e-13 1.27e-12 1.64e-12 2e-12 2.35e-12 2.68e-12 3.31e-12 3.88e-12 4.42e-12 4.92e-12 5.39e-12 5.82e-12 6.23e-12 6.62e-12 6.98e-12 7.37e-12 
10 01 10  10 03 07 3.57e-16 1.01e-14 5.29e-14 2.67e-13 5.89e-13 9.39e-13 1.28e-12 1.6e-12 1.89e-12 2.16e-12 2.41e-12 2.87e-12 3.27e-12 3.64e-12 3.99e-12 4.31e-12 4.63e-12 4.93e-12 5.23e-12 5.52e-12 5.8e-12 
10 01 09  01 01 01 3.36e-14 3.79e-14 4.36e-14 5.73e-14 7.31e-14 9.04e-14 1.09e-13 1.28e-13 1.47e-13 1.67e-13 1.87e-13 2.25e-13 2.62e-13 2.97e-13 3.29e-13 3.59e-13 3.87e-13 4.12e-13 4.36e-13 4.59e-13 4.8e-13 
10 01 09  01 01 00 1.59e-14 1.8e-14 2.04e-14 2.59e-14 3.29e-14 4.19e-14 5.29e-14 6.6e-14 8.13e-14 9.86e-14 1.18e-13 1.61e-13 2.11e-13 2.66e-13 3.26e-13 3.9e-13 4.58e-13 5.29e-13 6.04e-13 6.82e-13 7.62e-13 
10 01 09  02 01 02 3.51e-14 3.91e-14 4.36e-14 5.52e-14 7.07e-14 9.03e-14 1.14e-13 1.41e-13 1.71e-13 2.04e-13 2.38e-13 3.13e-13 3.94e-13 4.78e-13 5.66e-13 6.56e-13 7.48e-13 8.42e-13 9.38e-13 1.04e-12 1.14e-12 
10 01 09  02 01 01 1.22e-13 1.35e-13 1.5e-13 1.83e-13 2.2e-13 2.6e-13 3.02e-13 3.45e-13 3.89e-13 4.32e-13 4.75e-13 5.57e-13 6.35e-13 7.08e-13 7.76e-13 8.39e-13 8.99e-13 9.56e-13 1.01e-12 1.06e-12 1.11e-12 
10 01 09  03 01 03 1.84e-13 2.02e-13 2.24e-13 2.78e-13 3.42e-13 4.13e-13 4.89e-13 5.66e-13 6.44e-13 7.2e-13 7.94e-13 9.33e-13 1.06e-12 1.18e-12 1.28e-12 1.37e-12 1.46e-12 1.54e-12 1.61e-12 1.67e-12 1.73e-12 
10 01 09  03 01 02 8.49e-14 9.04e-14 9.91e-14 1.28e-13 1.73e-13 2.35e-13 3.1e-13 3.98e-13 4.95e-13 5.99e-13 7.08e-13 9.35e-13 1.17e-12 1.4e-12 1.63e-12 1.86e-12 2.08e-12 2.3e-12 2.52e-12 2.74e-12 2.95e-12 
10 01 09  04 01 04 2.1e-13 2.34e-13 2.62e-13 3.26e-13 4.02e-13 4.85e-13 5.74e-13 6.65e-13 7.58e-13 8.5e-13 9.41e-13 1.12e-12 1.29e-12 1.45e-12 1.6e-12 1.75e-12 1.89e-12 2.02e-12 2.15e-12 2.27e-12 2.39e-12 
10 01 09  04 01 03 5.62e-13 6.31e-13 7.04e-13 8.54e-13 1.01e-12 1.15e-12 1.3e-12 1.43e-12 1.56e-12 1.69e-12 1.8e-12 2.03e-12 2.25e-12 2.47e-12 2.69e-12 2.92e-12 3.15e-12 3.39e-12 3.63e-12 3.88e-12 4.14e-12 
10 01 09  05 01 05 1.05e-12 1.12e-12 1.2e-12 1.36e-12 1.52e-12 1.69e-12 1.85e-12 2e-12 2.15e-12 2.29e-12 2.43e-12 2.68e-12 2.9e-12 3.1e-12 3.29e-12 3.47e-12 3.63e-12 3.79e-12 3.93e-12 4.07e-12 4.21e-12 
10 01 09  05 01 04 9.41e-13 9.97e-13 1.07e-12 1.27e-12 1.52e-12 1.79e-12 2.09e-12 2.4e-12 2.71e-12 3.01e-12 3.32e-12 3.9e-12 4.44e-12 4.93e-12 5.39e-12 5.8e-12 6.19e-12 6.53e-12 6.85e-12 7.15e-12 7.42e-12 
10 01 09  06 01 06 1.75e-12 1.84e-12 1.92e-12 2.07e-12 2.21e-12 2.34e-12 2.47e-12 2.59e-12 2.71e-12 2.82e-12 2.92e-12 3.11e-12 3.28e-12 3.44e-12 3.58e-12 3.7e-12 3.81e-12 3.92e-12 4.01e-12 4.1e-12 4.18e-12 
10 01 09  06 01 05 3.61e-12 3.87e-12 4.09e-12 4.48e-12 4.83e-12 5.14e-12 5.43e-12 5.71e-12 5.97e-12 6.23e-12 6.49e-12 7.01e-12 7.53e-12 8.07e-12 8.63e-12 9.2e-12 9.79e-12 1.04e-11 1.1e-11 1.17e-11 1.23e-11 
10 01 09  07 01 07 4.74e-12 4.89e-12 5e-12 5.19e-12 5.36e-12 5.53e-12 5.7e-12 5.86e-12 6.02e-12 6.18e-12 6.33e-12 6.63e-12 6.93e-12 7.22e-12 7.53e-12 7.84e-12 8.16e-12 8.49e-12 8.84e-12 9.19e-12 9.55e-12 
10 01 09  07 01 06 1.04e-11 1.05e-11 1.07e-11 1.11e-11 1.15e-11 1.2e-11 1.24e-11 1.29e-11 1.33e-11 1.37e-11 1.41e-11 1.48e-11 1.55e-11 1.6e-11 1.64e-11 1.68e-11 1.71e-11 1.73e-11 1.75e-11 1.76e-11 1.77e-11 
10 01 09  08 01 08 4.24e-12 4.29e-12 4.31e-12 4.31e-12 4.3e-12 4.29e-12 4.3e-12 4.32e-12 4.36e-12 4.41e-12 4.46e-12 4.61e-12 4.79e-12 5e-12 5.23e-12 5.49e-12 5.76e-12 6.05e-12 6.35e-12 6.67e-12 7e-12 
10 01 09  08 01 07 1.72e-11 1.79e-11 1.85e-11 1.93e-11 2.01e-11 2.1e-11 2.18e-11 2.25e-11 2.33e-11 2.41e-11 2.48e-11 2.62e-11 2.75e-11 2.88e-11 3e-11 3.11e-11 3.21e-11 3.31e-11 3.41e-11 3.49e-11 3.57e-11 
10 01 09  09 01 09 9.49e-12 9.88e-12 1.01e-11 1.04e-11 1.06e-11 1.07e-11 1.08e-11 1.08e-11 1.09e-11 1.1e-11 1.11e-11 1.12e-11 1.14e-11 1.16e-11 1.19e-11 1.21e-11 1.24e-11 1.27e-11 1.3e-11 1.34e-11 1.37e-11 
10 01 09  09 01 08 5.07e-11 5.09e-11 5.1e-11 5.12e-11 5.14e-11 5.15e-11 5.17e-11 5.18e-11 5.2e-11 5.22e-11 5.23e-11 5.27e-11 5.3e-11 5.33e-11 5.35e-11 5.37e-11 5.38e-11 5.39e-11 5.39e-11 5.38e-11 5.36e-11 
10 01 09  10 01 10 3.69e-12 3.74e-12 3.75e-12 3.72e-12 3.71e-12 3.73e-12 3.78e-12 3.85e-12 3.94e-12 4.05e-12 4.17e-12 4.45e-12 4.76e-12 5.09e-12 5.42e-12 5.75e-12 6.09e-12 6.43e-12 6.76e-12 7.09e-12 7.42e-12 
10 01 09  10 01 09 0 0 0 0 0 0 0 0 0 0 0 0 0 0 0 0 0 0 0 0 0 
10 01 09  11 01 11 1.3e-12 2.82e-12 4.07e-12 5.78e-12 6.84e-12 7.46e-12 7.95e-12 8.34e-12 8.64e-12 8.93e-12 9.18e-12 9.56e-12 9.93e-12 1.02e-11 1.06e-11 1.09e-11 1.12e-11 1.14e-11 1.16e-11 1.18e-11 1.2e-11 
10 01 09  11 01 10 1.05e-12 3.9e-12 7.58e-12 1.48e-11 2.08e-11 2.56e-11 2.94e-11 3.27e-11 3.54e-11 3.77e-11 3.98e-11 4.31e-11 4.58e-11 4.79e-11 4.96e-11 5.1e-11 5.2e-11 5.28e-11 5.34e-11 5.37e-11 5.38e-11 
10 01 09  12 01 12 1.87e-14 1.56e-13 4.54e-13 1.32e-12 2.26e-12 3.12e-12 3.88e-12 4.54e-12 5.12e-12 5.63e-12 6.09e-12 6.87e-12 7.56e-12 8.09e-12 8.55e-12 9.03e-12 9.39e-12 9.72e-12 1e-11 1.03e-11 1.05e-11 
10 01 09  12 01 11 4.25e-15 6.9e-14 2.85e-13 1.2e-12 2.54e-12 4.07e-12 5.64e-12 7.2e-12 8.73e-12 1.02e-11 1.17e-11 1.44e-11 1.7e-11 1.93e-11 2.15e-11 2.37e-11 2.57e-11 2.77e-11 2.96e-11 3.13e-11 3.31e-11 
10 01 09  03 03 01 9.68e-14 1.12e-13 1.28e-13 1.59e-13 1.87e-13 2.12e-13 2.35e-13 2.57e-13 2.77e-13 2.98e-13 3.22e-13 3.73e-13 4.36e-13 5.1e-13 5.99e-13 6.93e-13 7.98e-13 9.2e-13 1.05e-12 1.19e-12 1.33e-12 
10 01 09  03 03 00 3.25e-13 3.63e-13 3.94e-13 4.43e-13 4.79e-13 5.09e-13 5.36e-13 5.64e-13 5.93e-13 6.25e-13 6.62e-13 7.48e-13 8.46e-13 9.6e-13 1.09e-12 1.22e-12 1.38e-12 1.54e-12 1.71e-12 1.89e-12 2.07e-12 
10 01 09  04 03 02 2.75e-13 3.39e-13 4.03e-13 5.28e-13 6.41e-13 7.47e-13 8.43e-13 9.31e-13 1.01e-12 1.09e-12 1.17e-12 1.3e-12 1.43e-12 1.56e-12 1.69e-12 1.82e-12 1.95e-12 2.08e-12 2.22e-12 2.36e-12 2.49e-12 
10 01 09  04 03 01 1.2e-13 1.33e-13 1.47e-13 1.84e-13 2.28e-13 2.76e-13 3.27e-13 3.77e-13 4.26e-13 4.74e-13 5.22e-13 6.15e-13 7.03e-13 8e-13 8.88e-13 9.88e-13 1.09e-12 1.19e-12 1.3e-12 1.41e-12 1.52e-12 
10 01 09  05 03 03 1.4e-12 1.43e-12 1.47e-12 1.56e-12 1.66e-12 1.75e-12 1.84e-12 1.91e-12 1.99e-12 2.04e-12 2.1e-12 2.21e-12 2.31e-12 2.4e-12 2.48e-12 2.57e-12 2.65e-12 2.73e-12 2.81e-12 2.89e-12 2.98e-12 
10 01 09  05 03 02 1.9e-12 2.02e-12 2.15e-12 2.41e-12 2.63e-12 2.83e-12 2.97e-12 3.1e-12 3.2e-12 3.28e-12 3.36e-12 3.47e-12 3.57e-12 3.64e-12 3.7e-12 3.75e-12 3.8e-12 3.84e-12 3.88e-12 3.91e-12 3.94e-12 
10 01 09  06 03 04 6.08e-12 6.19e-12 6.28e-12 6.43e-12 6.49e-12 6.53e-12 6.54e-12 6.54e-12 6.54e-12 6.52e-12 6.51e-12 6.48e-12 6.45e-12 6.43e-12 6.41e-12 6.39e-12 6.36e-12 6.33e-12 6.3e-12 6.26e-12 6.22e-12 
10 01 09  06 03 03 4.32e-12 4.34e-12 4.33e-12 4.34e-12 4.35e-12 4.36e-12 4.37e-12 4.38e-12 4.39e-12 4.4e-12 4.41e-12 4.45e-12 4.48e-12 4.52e-12 4.56e-12 4.6e-12 4.65e-12 4.7e-12 4.75e-12 4.8e-12 4.85e-12 
10 01 09  07 03 05 5.92e-12 6.06e-12 6.08e-12 5.99e-12 5.88e-12 5.79e-12 5.73e-12 5.7e-12 5.68e-12 5.67e-12 5.67e-12 5.69e-12 5.73e-12 5.78e-12 5.83e-12 5.89e-12 5.94e-12 6e-12 6.06e-12 6.1e-12 6.15e-12 
10 01 09  07 03 04 6.71e-12 7.13e-12 7.4e-12 7.7e-12 7.82e-12 7.87e-12 7.89e-12 7.91e-12 7.9e-12 7.91e-12 7.85e-12 7.84e-12 7.86e-12 7.89e-12 7.92e-12 7.9e-12 7.94e-12 7.93e-12 7.98e-12 8.04e-12 8.03e-12 
10 01 09  08 03 06 5.65e-13 1.16e-12 1.68e-12 2.48e-12 3.06e-12 3.53e-12 3.91e-12 4.22e-12 4.5e-12 4.74e-12 4.96e-12 5.34e-12 5.66e-12 5.94e-12 6.19e-12 6.41e-12 6.62e-12 6.8e-12 6.98e-12 7.15e-12 7.3e-12 
10 01 09  08 03 05 7.02e-13 1.37e-12 1.89e-12 2.57e-12 3e-12 3.31e-12 3.55e-12 3.75e-12 3.92e-12 4.07e-12 4.21e-12 4.45e-12 4.66e-12 4.85e-12 5.01e-12 5.18e-12 5.32e-12 5.46e-12 5.58e-12 5.71e-12 5.82e-12 
10 01 09  09 03 07 1.4e-14 8e-14 1.93e-13 4.78e-13 7.71e-13 1.05e-12 1.3e-12 1.53e-12 1.73e-12 1.92e-12 2.11e-12 2.43e-12 2.72e-12 2.98e-12 3.23e-12 3.45e-12 3.66e-12 3.85e-12 4.03e-12 4.2e-12 4.36e-12 
10 01 09  09 03 06 2.21e-14 1.26e-13 3.01e-13 7.38e-13 1.19e-12 1.63e-12 2.04e-12 2.43e-12 2.78e-12 3.12e-12 3.43e-12 3.99e-12 4.51e-12 4.97e-12 5.4e-12 5.8e-12 6.17e-12 6.54e-12 6.89e-12 7.22e-12 7.54e-12 
10 01 09  10 03 08 7.27e-16 1.39e-14 6.02e-14 2.6e-13 5.41e-13 8.44e-13 1.14e-12 1.43e-12 1.7e-12 1.96e-12 2.2e-12 2.66e-12 3.08e-12 3.48e-12 3.88e-12 4.27e-12 4.65e-12 5.03e-12 5.41e-12 5.8e-12 6.18e-12 
10 01 09  10 03 07 7.71e-16 1.47e-14 6.4e-14 2.75e-13 5.72e-13 8.94e-13 1.21e-12 1.53e-12 1.83e-12 2.12e-12 2.4e-12 2.94e-12 3.46e-12 3.97e-12 4.46e-12 4.95e-12 5.43e-12 5.92e-12 6.4e-12 6.89e-12 7.37e-12 
11 01 11  01 01 01 2.64e-13 2.69e-13 2.77e-13 2.95e-13 3.13e-13 3.32e-13 3.52e-13 3.73e-13 3.95e-13 4.2e-13 4.46e-13 5.03e-13 5.66e-13 6.33e-13 7.05e-13 7.8e-13 8.59e-13 9.4e-13 1.02e-12 1.11e-12 1.2e-12 
11 01 11  01 01 00 8.57e-14 9.22e-14 9.9e-14 1.12e-13 1.25e-13 1.38e-13 1.5e-13 1.63e-13 1.75e-13 1.88e-13 2.01e-13 2.26e-13 2.51e-13 2.75e-13 2.98e-13 3.2e-13 3.41e-13 3.6e-13 3.79e-13 3.96e-13 4.13e-13 
11 01 11  02 01 02 2.89e-13 2.89e-13 2.92e-13 3.02e-13 3.19e-13 3.4e-13 3.64e-13 3.9e-13 4.18e-13 4.46e-13 4.74e-13 5.32e-13 5.9e-13 6.5e-13 7.12e-13 7.76e-13 8.42e-13 9.11e-13 9.82e-13 1.05e-12 1.13e-12 
11 01 11  02 01 01 5.05e-13 5.11e-13 5.23e-13 5.53e-13 5.86e-13 6.22e-13 6.61e-13 7.03e-13 7.49e-13 7.99e-13 8.53e-13 9.7e-13 1.1e-12 1.23e-12 1.38e-12 1.52e-12 1.67e-12 1.83e-12 1.99e-12 2.15e-12 2.32e-12 
11 01 11  03 01 03 7.32e-13 7.33e-13 7.43e-13 7.71e-13 8.04e-13 8.42e-13 8.83e-13 9.27e-13 9.73e-13 1.02e-12 1.07e-12 1.18e-12 1.28e-12 1.39e-12 1.5e-12 1.61e-12 1.72e-12 1.83e-12 1.94e-12 2.05e-12 2.16e-12 
11 01 11  03 01 02 5.06e-13 5.14e-13 5.27e-13 5.58e-13 5.98e-13 6.43e-13 6.92e-13 7.42e-13 7.93e-13 8.45e-13 8.95e-13 9.94e-13 1.09e-12 1.18e-12 1.27e-12 1.35e-12 1.43e-12 1.51e-12 1.59e-12 1.67e-12 1.75e-12 
11 01 11  04 01 04 6.5e-13 6.99e-13 7.49e-13 8.47e-13 9.42e-13 1.03e-12 1.12e-12 1.21e-12 1.29e-12 1.38e-12 1.46e-12 1.63e-12 1.8e-12 1.98e-12 2.15e-12 2.33e-12 2.51e-12 2.69e-12 2.87e-12 3.06e-12 3.24e-12 
11 01 11  04 01 03 1.49e-12 1.49e-12 1.5e-12 1.55e-12 1.62e-12 1.69e-12 1.78e-12 1.87e-12 1.97e-12 2.07e-12 2.17e-12 2.38e-12 2.6e-12 2.83e-12 3.05e-12 3.28e-12 3.5e-12 3.73e-12 3.95e-12 4.18e-12 4.4e-12 
11 01 11  05 01 05 1.89e-12 1.87e-12 1.87e-12 1.9e-12 1.93e-12 1.95e-12 1.98e-12 2.01e-12 2.03e-12 2.07e-12 2.1e-12 2.2e-12 2.31e-12 2.46e-12 2.63e-12 2.82e-12 3.03e-12 3.26e-12 3.51e-12 3.78e-12 4.06e-12 
11 01 11  05 01 04 2.07e-12 2.12e-12 2.17e-12 2.29e-12 2.42e-12 2.54e-12 2.65e-12 2.76e-12 2.86e-12 2.96e-12 3.05e-12 3.22e-12 3.37e-12 3.51e-12 3.64e-12 3.75e-12 3.87e-12 3.97e-12 4.07e-12 4.16e-12 4.25e-12 
11 01 11  06 01 06 2.37e-12 2.38e-12 2.4e-12 2.51e-12 2.66e-12 2.85e-12 3.07e-12 3.3e-12 3.55e-12 3.8e-12 4.05e-12 4.54e-12 5.02e-12 5.48e-12 5.92e-12 6.34e-12 6.75e-12 7.15e-12 7.53e-12 7.91e-12 8.28e-12 
11 01 11  06 01 05 4.72e-12 4.65e-12 4.63e-12 4.64e-12 4.66e-12 4.69e-12 4.72e-12 4.75e-12 4.79e-12 4.84e-12 4.89e-12 5.01e-12 5.14e-12 5.3e-12 5.47e-12 5.65e-12 5.85e-12 6.05e-12 6.26e-12 6.47e-12 6.69e-12 
11 01 11  07 01 07 2.58e-12 2.45e-12 2.37e-12 2.29e-12 2.27e-12 2.29e-12 2.35e-12 2.42e-12 2.52e-12 2.63e-12 2.77e-12 3.08e-12 3.44e-12 3.84e-12 4.28e-12 4.75e-12 5.24e-12 5.76e-12 6.31e-12 6.87e-12 7.46e-12 
11 01 11  07 01 06 7.37e-12 7.28e-12 7.25e-12 7.26e-12 7.3e-12 7.36e-12 7.43e-12 7.51e-12 7.59e-12 7.67e-12 7.76e-12 7.93e-12 8.11e-12 8.28e-12 8.45e-12 8.61e-12 8.76e-12 8.91e-12 9.05e-12 9.19e-12 9.31e-12 
11 01 11  08 01 08 4.21e-12 4.53e-12 4.84e-12 5.46e-12 6.06e-12 6.66e-12 7.25e-12 7.82e-12 8.36e-12 8.88e-12 9.38e-12 1.03e-11 1.11e-11 1.19e-11 1.26e-11 1.33e-11 1.39e-11 1.45e-11 1.5e-11 1.55e-11 1.6e-11 
11 01 11  08 01 07 1.08e-11 1.03e-11 9.96e-12 9.44e-12 9.05e-12 8.75e-12 8.5e-12 8.29e-12 8.12e-12 7.99e-12 7.88e-12 7.73e-12 7.65e-12 7.64e-12 7.67e-12 7.74e-12 7.85e-12 7.98e-12 8.13e-12 8.3e-12 8.5e-12 
11 01 11  09 01 09 6.08e-12 6.36e-12 6.65e-12 7.27e-12 7.93e-12 8.65e-12 9.42e-12 1.02e-11 1.1e-11 1.18e-11 1.26e-11 1.41e-11 1.56e-11 1.7e-11 1.84e-11 1.98e-11 2.11e-11 2.23e-11 2.35e-11 2.47e-11 2.59e-11 
11 01 11  09 01 08 1.09e-11 1.06e-11 1.04e-11 1.02e-11 1.01e-11 1.01e-11 1.01e-11 1.01e-11 1.02e-11 1.03e-11 1.04e-11 1.06e-11 1.08e-11 1.11e-11 1.13e-11 1.16e-11 1.18e-11 1.21e-11 1.23e-11 1.25e-11 1.28e-11 
11 01 11  10 01 10 4.86e-11 4.8e-11 4.77e-11 4.75e-11 4.74e-11 4.74e-11 4.74e-11 4.75e-11 4.76e-11 4.77e-11 4.78e-11 4.81e-11 4.84e-11 4.87e-11 4.9e-11 4.92e-11 4.93e-11 4.94e-11 4.94e-11 4.94e-11 4.93e-11 
11 01 11  10 01 09 1.36e-11 1.31e-11 1.26e-11 1.19e-11 1.15e-11 1.11e-11 1.09e-11 1.08e-11 1.07e-11 1.07e-11 1.07e-11 1.07e-11 1.08e-11 1.09e-11 1.11e-11 1.12e-11 1.14e-11 1.15e-11 1.16e-11 1.18e-11 1.19e-11 
11 01 11  11 01 11 0 0 0 0 0 0 0 0 0 0 0 0 0 0 0 0 0 0 0 0 0 
11 01 11  11 01 10 6.98e-13 1.18e-12 1.53e-12 1.98e-12 2.27e-12 2.47e-12 2.64e-12 2.78e-12 2.92e-12 3.05e-12 3.17e-12 3.39e-12 3.61e-12 3.83e-12 4.02e-12 4.22e-12 4.42e-12 4.62e-12 4.8e-12 4.98e-12 5.16e-12 
11 01 11  12 01 12 9.26e-13 3.52e-12 6.89e-12 1.36e-11 1.9e-11 2.33e-11 2.67e-11 2.94e-11 3.17e-11 3.35e-11 3.52e-11 3.78e-11 4e-11 4.17e-11 4.31e-11 4.44e-11 4.56e-11 4.65e-11 4.73e-11 4.81e-11 4.87e-11 
11 01 11  12 01 11 1.88e-14 1.42e-13 4.02e-13 1.19e-12 2.1e-12 3.02e-12 3.89e-12 4.69e-12 5.43e-12 6.12e-12 6.71e-12 7.8e-12 8.73e-12 9.57e-12 1.03e-11 1.09e-11 1.15e-11 1.2e-11 1.25e-11 1.29e-11 1.33e-11 
11 01 11  03 03 01 9.7e-13 1.03e-12 1.1e-12 1.26e-12 1.44e-12 1.61e-12 1.77e-12 1.92e-12 2.05e-12 2.17e-12 2.28e-12 2.48e-12 2.65e-12 2.79e-12 2.93e-12 3.05e-12 3.15e-12 3.25e-12 3.34e-12 3.43e-12 3.51e-12 
11 01 11  03 03 00 8.61e-13 9e-13 9.46e-13 1.05e-12 1.16e-12 1.26e-12 1.35e-12 1.45e-12 1.52e-12 1.59e-12 1.65e-12 1.77e-12 1.86e-12 1.95e-12 2.02e-12 2.08e-12 2.14e-12 2.18e-12 2.23e-12 2.28e-12 2.32e-12 
11 01 11  04 03 02 1.65e-12 1.73e-12 1.83e-12 2.03e-12 2.2e-12 2.35e-12 2.48e-12 2.58e-12 2.68e-12 2.76e-12 2.84e-12 2.97e-12 3.07e-12 3.17e-12 3.26e-12 3.35e-12 3.43e-12 3.52e-12 3.6e-12 3.68e-12 3.75e-12 
11 01 11  04 03 01 1.65e-12 1.71e-12 1.8e-12 2.02e-12 2.24e-12 2.46e-12 2.65e-12 2.84e-12 3e-12 3.14e-12 3.27e-12 3.49e-12 3.69e-12 3.86e-12 4.03e-12 4.18e-12 4.34e-12 4.49e-12 4.65e-12 4.8e-12 4.96e-12 
11 01 11  05 03 03 2.34e-12 2.39e-12 2.46e-12 2.61e-12 2.76e-12 2.88e-12 3.02e-12 3.13e-12 3.24e-12 3.33e-12 3.43e-12 3.6e-12 3.75e-12 3.88e-12 4e-12 4.1e-12 4.19e-12 4.28e-12 4.35e-12 4.4e-12 4.45e-12 
11 01 11  05 03 02 1.69e-12 1.74e-12 1.81e-12 1.95e-12 2.09e-12 2.22e-12 2.34e-12 2.46e-12 2.57e-12 2.66e-12 2.75e-12 2.92e-12 3.07e-12 3.21e-12 3.35e-12 3.47e-12 3.6e-12 3.73e-12 3.85e-12 3.97e-12 4.09e-12 
11 01 11  06 03 04 2.08e-12 2.11e-12 2.14e-12 2.19e-12 2.25e-12 2.31e-12 2.36e-12 2.43e-12 2.49e-12 2.55e-12 2.61e-12 2.73e-12 2.84e-12 2.93e-12 3.02e-12 3.09e-12 3.16e-12 3.2e-12 3.25e-12 3.29e-12 3.32e-12 
11 01 11  06 03 03 1.48e-12 1.59e-12 1.7e-12 1.94e-12 2.15e-12 2.36e-12 2.53e-12 2.7e-12 2.86e-12 3e-12 3.13e-12 3.38e-12 3.61e-12 3.84e-12 4.05e-12 4.26e-12 4.48e-12 4.68e-12 4.9e-12 5.1e-12 5.32e-12 
11 01 11  07 03 05 1.43e-12 1.44e-12 1.45e-12 1.48e-12 1.54e-12 1.62e-12 1.7e-12 1.79e-12 1.87e-12 1.96e-12 2.04e-12 2.2e-12 2.35e-12 2.49e-12 2.62e-12 2.76e-12 2.88e-12 3e-12 3.12e-12 3.24e-12 3.35e-12 
11 01 11  07 03 04 3.43e-12 3.54e-12 3.67e-12 3.89e-12 4.1e-12 4.25e-12 4.37e-12 4.48e-12 4.58e-12 4.68e-12 4.77e-12 4.95e-12 5.13e-12 5.32e-12 5.49e-12 5.66e-12 5.84e-12 6e-12 6.17e-12 6.33e-12 6.48e-12 
11 01 11  08 03 06 2.59e-12 2.76e-12 2.89e-12 3.12e-12 3.31e-12 3.5e-12 3.66e-12 3.8e-12 3.93e-12 4.06e-12 4.18e-12 4.42e-12 4.66e-12 4.9e-12 5.15e-12 5.41e-12 5.68e-12 5.96e-12 6.24e-12 6.53e-12 6.83e-12 
11 01 11  08 03 05 6.26e-12 6.14e-12 5.91e-12 5.51e-12 5.26e-12 5.11e-12 5.03e-12 5e-12 5e-12 5.03e-12 5.08e-12 5.2e-12 5.34e-12 5.5e-12 5.66e-12 5.81e-12 5.95e-12 6.09e-12 6.22e-12 6.33e-12 6.44e-12 
11 01 11  09 03 07 3.77e-13 9.4e-13 1.47e-12 2.28e-12 2.84e-12 3.26e-12 3.61e-12 3.92e-12 4.2e-12 4.47e-12 4.72e-12 5.18e-12 5.61e-12 6.02e-12 6.4e-12 6.76e-12 7.11e-12 7.41e-12 7.77e-12 8.06e-12 8.34e-12 
11 01 11  09 03 06 1.55e-13 4.13e-13 6.86e-13 1.17e-12 1.57e-12 1.92e-12 2.23e-12 2.52e-12 2.79e-12 3.05e-12 3.3e-12 3.77e-12 4.2e-12 4.6e-12 4.99e-12 5.34e-12 5.69e-12 6.02e-12 6.35e-12 6.66e-12 6.95e-12 
11 01 11  10 03 08 1.98e-14 1.66e-13 4.75e-13 1.35e-12 2.26e-12 3.08e-12 3.84e-12 4.5e-12 5.08e-12 5.64e-12 6.15e-12 7.1e-12 7.89e-12 8.66e-12 9.31e-12 9.91e-12 1.05e-11 1.09e-11 1.14e-11 1.18e-11 1.22e-11 
11 01 11  10 03 07 8.66e-15 6.94e-14 1.9e-13 4.92e-13 7.57e-13 9.63e-13 1.12e-12 1.24e-12 1.34e-12 1.43e-12 1.51e-12 1.65e-12 1.79e-12 1.93e-12 2.09e-12 2.25e-12 2.42e-12 2.59e-12 2.78e-12 2.96e-12 3.16e-12 
11 01 10  01 01 01 1.55e-14 1.6e-14 1.75e-14 2.24e-14 2.91e-14 3.72e-14 4.65e-14 5.72e-14 6.91e-14 8.23e-14 9.67e-14 1.29e-13 1.67e-13 2.08e-13 2.54e-13 3.04e-13 3.58e-13 4.15e-13 4.76e-13 5.39e-13 6.06e-13 
11 01 10  01 01 00 4.51e-14 4.58e-14 4.93e-14 6.03e-14 7.48e-14 9.16e-14 1.1e-13 1.3e-13 1.51e-13 1.73e-13 1.95e-13 2.4e-13 2.87e-13 3.34e-13 3.82e-13 4.29e-13 4.78e-13 5.26e-13 5.75e-13 6.24e-13 6.74e-13 
11 01 10  02 01 02 8.18e-14 8.17e-14 8.61e-14 1.02e-13 1.24e-13 1.5e-13 1.78e-13 2.09e-13 2.41e-13 2.73e-13 3.06e-13 3.72e-13 4.37e-13 5e-13 5.6e-13 6.2e-13 6.77e-13 7.33e-13 7.87e-13 8.41e-13 8.93e-13 
11 01 10  02 01 01 4.35e-14 4.3e-14 4.49e-14 5.28e-14 6.56e-14 8.3e-14 1.05e-13 1.31e-13 1.61e-13 1.94e-13 2.31e-13 3.13e-13 4.05e-13 5.07e-13 6.17e-13 7.34e-13 8.58e-13 9.88e-13 1.12e-12 1.27e-12 1.41e-12 
11 01 10  03 01 03 7.32e-14 7.2e-14 7.47e-14 8.62e-14 1.03e-13 1.25e-13 1.5e-13 1.79e-13 2.1e-13 2.43e-13 2.78e-13 3.53e-13 4.33e-13 5.17e-13 6.04e-13 6.94e-13 7.88e-13 8.84e-13 9.82e-13 1.08e-12 1.19e-12 
11 01 10  03 01 02 2.66e-13 2.62e-13 2.72e-13 3.1e-13 3.63e-13 4.24e-13 4.91e-13 5.6e-13 6.3e-13 6.99e-13 7.66e-13 8.96e-13 1.02e-12 1.13e-12 1.23e-12 1.32e-12 1.41e-12 1.49e-12 1.56e-12 1.64e-12 1.7e-12 
11 01 10  04 01 04 2.86e-13 2.84e-13 2.98e-13 3.43e-13 4.01e-13 4.64e-13 5.29e-13 5.93e-13 6.57e-13 7.19e-13 7.79e-13 8.93e-13 9.99e-13 1.1e-12 1.19e-12 1.28e-12 1.37e-12 1.45e-12 1.53e-12 1.61e-12 1.68e-12 
11 01 10  04 01 03 1.5e-13 1.49e-13 1.57e-13 1.93e-13 2.5e-13 3.24e-13 4.13e-13 5.11e-13 6.18e-13 7.3e-13 8.47e-13 1.09e-12 1.34e-12 1.59e-12 1.84e-12 2.1e-12 2.36e-12 2.62e-12 2.88e-12 3.14e-12 3.41e-12 
11 01 10  05 01 05 3.36e-13 3.35e-13 3.49e-13 3.99e-13 4.62e-13 5.3e-13 6.01e-13 6.75e-13 7.5e-13 8.25e-13 9.01e-13 1.05e-12 1.2e-12 1.35e-12 1.5e-12 1.65e-12 1.79e-12 1.94e-12 2.08e-12 2.23e-12 2.38e-12 
11 01 10  05 01 04 9.34e-13 9.26e-13 9.63e-13 1.09e-12 1.25e-12 1.42e-12 1.59e-12 1.74e-12 1.9e-12 2.04e-12 2.18e-12 2.45e-12 2.71e-12 2.96e-12 3.21e-12 3.46e-12 3.72e-12 3.98e-12 4.24e-12 4.51e-12 4.78e-12 
11 01 10  06 01 06 1.32e-12 1.29e-12 1.32e-12 1.42e-12 1.54e-12 1.66e-12 1.79e-12 1.9e-12 2.01e-12 2.12e-12 2.22e-12 2.42e-12 2.6e-12 2.78e-12 2.95e-12 3.12e-12 3.28e-12 3.45e-12 3.61e-12 3.78e-12 3.94e-12 
11 01 10  06 01 05 1.33e-12 1.3e-12 1.33e-12 1.48e-12 1.69e-12 1.94e-12 2.2e-12 2.47e-12 2.73e-12 3e-12 3.26e-12 3.77e-12 4.24e-12 4.68e-12 5.1e-12 5.49e-12 5.86e-12 6.21e-12 6.55e-12 6.87e-12 7.18e-12 
11 01 10  07 01 07 2.07e-12 2e-12 2e-12 2.07e-12 2.18e-12 2.3e-12 2.42e-12 2.55e-12 2.68e-12 2.81e-12 2.95e-12 3.21e-12 3.47e-12 3.73e-12 3.98e-12 4.22e-12 4.45e-12 4.68e-12 4.91e-12 5.13e-12 5.34e-12 
11 01 10  07 01 06 4.52e-12 4.38e-12 4.4e-12 4.61e-12 4.91e-12 5.22e-12 5.53e-12 5.85e-12 6.16e-12 6.48e-12 6.79e-12 7.44e-12 8.11e-12 8.79e-12 9.5e-12 1.02e-11 1.1e-11 1.18e-11 1.25e-11 1.34e-11 1.42e-11 
11 01 10  08 01 08 4.73e-12 4.56e-12 4.54e-12 4.64e-12 4.82e-12 5.01e-12 5.2e-12 5.39e-12 5.58e-12 5.76e-12 5.94e-12 6.29e-12 6.62e-12 6.96e-12 7.31e-12 7.66e-12 8.01e-12 8.38e-12 8.75e-12 9.13e-12 9.52e-12 
11 01 10  08 01 07 1.2e-11 1.16e-11 1.15e-11 1.16e-11 1.2e-11 1.23e-11 1.27e-11 1.32e-11 1.36e-11 1.4e-11 1.43e-11 1.5e-11 1.56e-11 1.61e-11 1.65e-11 1.68e-11 1.71e-11 1.73e-11 1.74e-11 1.75e-11 1.75e-11 
11 01 10  09 01 09 4.42e-12 4.21e-12 4.11e-12 4.02e-12 4.02e-12 4.06e-12 4.13e-12 4.23e-12 4.35e-12 4.49e-12 4.63e-12 4.94e-12 5.25e-12 5.57e-12 5.89e-12 6.2e-12 6.51e-12 6.8e-12 7.09e-12 7.38e-12 7.65e-12 
11 01 10  09 01 08 1.78e-11 1.73e-11 1.73e-11 1.79e-11 1.88e-11 1.97e-11 2.06e-11 2.15e-11 2.24e-11 2.33e-11 2.42e-11 2.58e-11 2.74e-11 2.89e-11 3.04e-11 3.18e-11 3.32e-11 3.46e-11 3.59e-11 3.71e-11 3.84e-11 
11 01 10  10 01 10 8.81e-12 8.74e-12 8.85e-12 9.18e-12 9.51e-12 9.8e-12 1.01e-11 1.03e-11 1.05e-11 1.07e-11 1.09e-11 1.13e-11 1.16e-11 1.2e-11 1.24e-11 1.28e-11 1.32e-11 1.36e-11 1.4e-11 1.44e-11 1.48e-11 
11 01 10  10 01 09 5.09e-11 5.03e-11 5.04e-11 5.08e-11 5.12e-11 5.17e-11 5.21e-11 5.26e-11 5.31e-11 5.35e-11 5.4e-11 5.48e-11 5.55e-11 5.61e-11 5.65e-11 5.68e-11 5.69e-11 5.69e-11 5.68e-11 5.65e-11 5.61e-11 
11 01 10  11 01 11 3.22e-12 3.26e-12 3.28e-12 3.29e-12 3.32e-12 3.35e-12 3.4e-12 3.46e-12 3.53e-12 3.61e-12 3.69e-12 3.85e-12 4.03e-12 4.21e-12 4.38e-12 4.56e-12 4.74e-12 4.92e-12 5.09e-12 5.26e-12 5.43e-12 
11 01 10  11 01 10 0 0 0 0 0 0 0 0 0 0 0 0 0 0 0 0 0 0 0 0 0 
11 01 10  12 01 12 9.22e-13 2.14e-12 3.26e-12 4.92e-12 6.01e-12 6.76e-12 7.28e-12 7.73e-12 8.01e-12 8.29e-12 8.53e-12 8.98e-12 9.26e-12 9.65e-12 9.92e-12 1.02e-11 1.05e-11 1.08e-11 1.09e-11 1.12e-11 1.14e-11 
11 01 10  12 01 11 7.68e-13 3.27e-12 6.78e-12 1.4e-11 2e-11 2.49e-11 2.88e-11 3.2e-11 3.47e-11 3.7e-11 3.9e-11 4.24e-11 4.51e-11 4.74e-11 4.94e-11 5.1e-11 5.24e-11 5.35e-11 5.46e-11 5.53e-11 5.6e-11 
11 01 10  03 03 01 3.05e-13 3.03e-13 3.09e-13 3.31e-13 3.54e-13 3.78e-13 3.98e-13 4.15e-13 4.32e-13 4.49e-13 4.66e-13 4.99e-13 5.34e-13 5.71e-13 6.09e-13 6.53e-13 6.92e-13 7.42e-13 7.87e-13 8.36e-13 8.9e-13 
11 01 10  03 03 00 1.61e-13 1.65e-13 1.75e-13 2.06e-13 2.41e-13 2.77e-13 3.12e-13 3.44e-13 3.74e-13 4.01e-13 4.27e-13 4.74e-13 5.15e-13 5.52e-13 5.86e-13 6.19e-13 6.5e-13 6.76e-13 7.03e-13 7.32e-13 7.61e-13 
11 01 10  04 03 02 1.74e-13 1.72e-13 1.77e-13 1.95e-13 2.19e-13 2.48e-13 2.8e-13 3.1e-13 3.44e-13 3.76e-13 4.06e-13 4.67e-13 5.23e-13 5.75e-13 6.23e-13 6.68e-13 7.13e-13 7.52e-13 7.86e-13 8.2e-13 8.56e-13 
11 01 10  04 03 01 4.62e-13 4.5e-13 4.53e-13 4.71e-13 4.96e-13 5.24e-13 5.52e-13 5.84e-13 6.14e-13 6.44e-13 6.76e-13 7.39e-13 8.03e-13 8.67e-13 9.33e-13 9.99e-13 1.07e-12 1.13e-12 1.2e-12 1.27e-12 1.35e-12 
11 01 10  05 03 03 6.51e-13 6.85e-13 7.51e-13 9.08e-13 1.06e-12 1.2e-12 1.32e-12 1.43e-12 1.52e-12 1.6e-12 1.67e-12 1.81e-12 1.93e-12 2.03e-12 2.14e-12 2.25e-12 2.34e-12 2.44e-12 2.54e-12 2.64e-12 2.74e-12 
11 01 10  05 03 02 3.2e-13 3.33e-13 3.64e-13 4.44e-13 5.34e-13 6.22e-13 7.07e-13 7.86e-13 8.6e-13 9.27e-13 9.88e-13 1.1e-12 1.2e-12 1.28e-12 1.36e-12 1.44e-12 1.52e-12 1.58e-12 1.65e-12 1.72e-12 1.79e-12 
11 01 10  06 03 04 2.16e-12 2.13e-12 2.16e-12 2.27e-12 2.39e-12 2.48e-12 2.59e-12 2.67e-12 2.73e-12 2.79e-12 2.84e-12 2.93e-12 3.02e-12 3.08e-12 3.14e-12 3.2e-12 3.26e-12 3.31e-12 3.35e-12 3.4e-12 3.45e-12 
11 01 10  06 03 03 3.29e-12 3.28e-12 3.34e-12 3.55e-12 3.74e-12 3.9e-12 4.02e-12 4.13e-12 4.21e-12 4.28e-12 4.33e-12 4.42e-12 4.48e-12 4.54e-12 4.59e-12 4.63e-12 4.68e-12 4.7e-12 4.72e-12 4.75e-12 4.76e-12 
11 01 10  07 03 05 8.13e-12 7.98e-12 7.94e-12 7.94e-12 7.93e-12 7.89e-12 7.84e-12 7.78e-12 7.73e-12 7.67e-12 7.63e-12 7.55e-12 7.5e-12 7.46e-12 7.43e-12 7.42e-12 7.41e-12 7.4e-12 7.39e-12 7.38e-12 7.37e-12 
11 01 10  07 03 04 5.17e-12 5.08e-12 5.06e-12 5.08e-12 5.09e-12 5.11e-12 5.13e-12 5.15e-12 5.16e-12 5.16e-12 5.16e-12 5.18e-12 5.2e-12 5.2e-12 5.21e-12 5.21e-12 5.2e-12 5.2e-12 5.19e-12 5.17e-12 5.14e-12 
11 01 10  08 03 06 6.59e-12 6.63e-12 6.62e-12 6.56e-12 6.46e-12 6.38e-12 6.3e-12 6.25e-12 6.21e-12 6.18e-12 6.16e-12 6.15e-12 6.16e-12 6.19e-12 6.22e-12 6.26e-12 6.3e-12 6.35e-12 6.4e-12 6.45e-12 6.49e-12 
11 01 10  08 03 05 8.97e-12 9.12e-12 9.22e-12 9.3e-12 9.29e-12 9.23e-12 9.16e-12 9.08e-12 9.01e-12 8.95e-12 8.87e-12 8.86e-12 8.76e-12 8.78e-12 8.75e-12 8.83e-12 8.83e-12 8.93e-12 8.96e-12 9.07e-12 9.11e-12 
11 01 10  09 03 07 1.93e-12 2.93e-12 3.57e-12 4.32e-12 4.76e-12 5.07e-12 5.31e-12 5.51e-12 5.68e-12 5.84e-12 5.98e-12 6.25e-12 6.49e-12 6.72e-12 6.92e-12 7.13e-12 7.32e-12 7.51e-12 7.69e-12 7.85e-12 7.98e-12 
11 01 10  09 03 06 2.34e-12 3.46e-12 4.1e-12 4.72e-12 4.98e-12 5.12e-12 5.21e-12 5.28e-12 5.34e-12 5.39e-12 5.44e-12 5.56e-12 5.67e-12 5.78e-12 5.9e-12 6.01e-12 6.13e-12 6.24e-12 6.36e-12 6.47e-12 6.58e-12 
11 01 10  10 03 08 3.15e-14 1.56e-13 3.39e-13 7.23e-13 1.05e-12 1.33e-12 1.57e-12 1.78e-12 1.97e-12 2.14e-12 2.31e-12 2.6e-12 2.88e-12 3.14e-12 3.4e-12 3.64e-12 3.88e-12 4.12e-12 4.35e-12 4.59e-12 4.82e-12 
11 01 10  10 03 07 3.65e-14 1.88e-13 4.29e-13 9.93e-13 1.54e-12 2.03e-12 2.49e-12 2.91e-12 3.3e-12 3.66e-12 4.01e-12 4.67e-12 5.29e-12 5.88e-12 6.46e-12 7.02e-12 7.56e-12 8.14e-12 8.65e-12 9.23e-12 9.72e-12 
12 01 12  01 01 01 4.53e-14 4.33e-14 4.31e-14 4.44e-14 4.63e-14 4.84e-14 5.07e-14 5.33e-14 5.61e-14 5.92e-14 6.26e-14 7e-14 7.82e-14 8.7e-14 9.65e-14 1.06e-13 1.17e-13 1.28e-13 1.39e-13 1.51e-13 1.62e-13 
12 01 12  01 01 00 1.02e-13 9.93e-14 1.02e-13 1.12e-13 1.24e-13 1.36e-13 1.48e-13 1.61e-13 1.74e-13 1.88e-13 2.02e-13 2.33e-13 2.68e-13 3.05e-13 3.46e-13 3.9e-13 4.37e-13 4.87e-13 5.4e-13 5.95e-13 6.52e-13 
12 01 12  02 01 02 2.82e-13 2.73e-13 2.77e-13 2.96e-13 3.17e-13 3.38e-13 3.61e-13 3.87e-13 4.16e-13 4.48e-13 4.85e-13 5.7e-13 6.68e-13 7.79e-13 9e-13 1.03e-12 1.17e-12 1.32e-12 1.47e-12 1.63e-12 1.8e-12 
12 01 12  02 01 01 8.72e-14 8.4e-14 8.44e-14 8.8e-14 9.25e-14 9.74e-14 1.03e-13 1.1e-13 1.17e-13 1.26e-13 1.36e-13 1.58e-13 1.83e-13 2.11e-13 2.41e-13 2.73e-13 3.07e-13 3.42e-13 3.78e-13 4.16e-13 4.54e-13 
12 01 12  03 01 03 2.27e-13 2.15e-13 2.11e-13 2.15e-13 2.26e-13 2.43e-13 2.64e-13 2.87e-13 3.13e-13 3.4e-13 3.69e-13 4.3e-13 4.94e-13 5.61e-13 6.3e-13 7.02e-13 7.75e-13 8.51e-13 9.29e-13 1.01e-12 1.09e-12 
12 01 12  03 01 02 4.03e-13 3.93e-13 4.01e-13 4.32e-13 4.66e-13 5.02e-13 5.4e-13 5.81e-13 6.27e-13 6.78e-13 7.33e-13 8.59e-13 1e-12 1.16e-12 1.33e-12 1.51e-12 1.71e-12 1.91e-12 2.12e-12 2.34e-12 2.57e-12 
12 01 12  04 01 04 6.97e-13 6.67e-13 6.67e-13 6.97e-13 7.42e-13 7.95e-13 8.53e-13 9.13e-13 9.76e-13 1.04e-12 1.11e-12 1.24e-12 1.37e-12 1.51e-12 1.64e-12 1.78e-12 1.92e-12 2.06e-12 2.2e-12 2.34e-12 2.49e-12 
12 01 12  04 01 03 3.68e-13 3.53e-13 3.52e-13 3.67e-13 3.91e-13 4.22e-13 4.57e-13 4.95e-13 5.36e-13 5.79e-13 6.23e-13 7.11e-13 7.99e-13 8.84e-13 9.67e-13 1.05e-12 1.12e-12 1.2e-12 1.27e-12 1.34e-12 1.41e-12 
12 01 12  05 01 05 5.74e-13 5.62e-13 5.76e-13 6.28e-13 6.87e-13 7.45e-13 8.01e-13 8.57e-13 9.12e-13 9.66e-13 1.02e-12 1.13e-12 1.23e-12 1.34e-12 1.45e-12 1.56e-12 1.67e-12 1.78e-12 1.89e-12 2e-12 2.12e-12 
12 01 12  05 01 04 1.31e-12 1.27e-12 1.27e-12 1.34e-12 1.42e-12 1.5e-12 1.59e-12 1.68e-12 1.76e-12 1.85e-12 1.94e-12 2.13e-12 2.32e-12 2.52e-12 2.72e-12 2.93e-12 3.14e-12 3.36e-12 3.58e-12 3.8e-12 4.03e-12 
12 01 12  06 01 06 1.83e-12 1.76e-12 1.75e-12 1.81e-12 1.87e-12 1.93e-12 1.99e-12 2.04e-12 2.09e-12 2.15e-12 2.2e-12 2.32e-12 2.46e-12 2.62e-12 2.8e-12 3e-12 3.21e-12 3.44e-12 3.69e-12 3.95e-12 4.22e-12 
12 01 12  06 01 05 1.95e-12 1.87e-12 1.86e-12 1.92e-12 1.99e-12 2.07e-12 2.15e-12 2.22e-12 2.28e-12 2.35e-12 2.41e-12 2.53e-12 2.63e-12 2.73e-12 2.82e-12 2.9e-12 2.97e-12 3.04e-12 3.1e-12 3.16e-12 3.21e-12 
12 01 12  07 01 07 1.94e-12 1.84e-12 1.82e-12 1.86e-12 1.97e-12 2.11e-12 2.29e-12 2.5e-12 2.71e-12 2.93e-12 3.16e-12 3.61e-12 4.04e-12 4.46e-12 4.85e-12 5.23e-12 5.58e-12 5.92e-12 6.24e-12 6.55e-12 6.85e-12 
12 01 12  07 01 06 4.73e-12 4.52e-12 4.48e-12 4.53e-12 4.62e-12 4.69e-12 4.75e-12 4.79e-12 4.83e-12 4.86e-12 4.9e-12 4.96e-12 5.02e-12 5.09e-12 5.17e-12 5.24e-12 5.33e-12 5.41e-12 5.5e-12 5.59e-12 5.68e-12 
12 01 12  08 01 08 2.38e-12 2.24e-12 2.17e-12 2.11e-12 2.1e-12 2.13e-12 2.18e-12 2.27e-12 2.37e-12 2.5e-12 2.64e-12 2.98e-12 3.36e-12 3.79e-12 4.25e-12 4.75e-12 5.27e-12 5.81e-12 6.37e-12 6.96e-12 7.57e-12 
12 01 12  08 01 07 7.03e-12 6.69e-12 6.57e-12 6.52e-12 6.53e-12 6.55e-12 6.57e-12 6.6e-12 6.63e-12 6.66e-12 6.69e-12 6.76e-12 6.84e-12 6.92e-12 6.99e-12 7.07e-12 7.13e-12 7.2e-12 7.25e-12 7.3e-12 7.34e-12 
12 01 12  09 01 09 5.22e-12 5.09e-12 5.17e-12 5.54e-12 6.02e-12 6.54e-12 7.07e-12 7.59e-12 8.11e-12 8.6e-12 9.09e-12 1e-11 1.09e-11 1.17e-11 1.25e-11 1.33e-11 1.4e-11 1.47e-11 1.54e-11 1.61e-11 1.67e-11 
12 01 12  09 01 08 1.02e-11 9.71e-12 9.48e-12 9.24e-12 9.08e-12 8.95e-12 8.83e-12 8.74e-12 8.65e-12 8.59e-12 8.53e-12 8.45e-12 8.4e-12 8.38e-12 8.38e-12 8.38e-12 8.4e-12 8.42e-12 8.45e-12 8.47e-12 8.5e-12 
12 01 12  10 01 10 6.54e-12 6.39e-12 6.45e-12 6.81e-12 7.3e-12 7.87e-12 8.48e-12 9.13e-12 9.8e-12 1.05e-11 1.12e-11 1.25e-11 1.38e-11 1.52e-11 1.64e-11 1.77e-11 1.9e-11 2.02e-11 2.14e-11 2.26e-11 2.38e-11 
12 01 12  10 01 09 1.04e-11 9.98e-12 9.82e-12 9.68e-12 9.62e-12 9.6e-12 9.61e-12 9.64e-12 9.68e-12 9.73e-12 9.79e-12 9.92e-12 1.01e-11 1.02e-11 1.03e-11 1.05e-11 1.06e-11 1.07e-11 1.08e-11 1.09e-11 1.09e-11 
12 01 12  11 01 11 4.91e-11 4.83e-11 4.81e-11 4.82e-11 4.82e-11 4.83e-11 4.83e-11 4.83e-11 4.84e-11 4.84e-11 4.85e-11 4.88e-11 4.91e-11 4.94e-11 4.97e-11 5e-11 5.04e-11 5.06e-11 5.09e-11 5.11e-11 5.13e-11 
12 01 12  11 01 10 1.06e-11 1.06e-11 1.06e-11 1.05e-11 1.04e-11 1.03e-11 1.02e-11 1.02e-11 1.01e-11 1.01e-11 1.01e-11 1.02e-11 1.02e-11 1.04e-11 1.05e-11 1.06e-11 1.08e-11 1.1e-11 1.11e-11 1.13e-11 1.14e-11 
12 01 12  12 01 12 0 0 0 0 0 0 0 0 0 0 0 0 0 0 0 0 0 0 0 0 0 
12 01 12  12 01 11 3.46e-13 6.71e-13 9.56e-13 1.38e-12 1.69e-12 1.93e-12 2.13e-12 2.3e-12 2.47e-12 2.63e-12 2.78e-12 3.08e-12 3.39e-12 3.7e-12 4.02e-12 4.34e-12 4.66e-12 4.99e-12 5.33e-12 5.66e-12 6.01e-12 
12 01 12  03 03 01 7.25e-13 7.11e-13 7.31e-13 8.05e-13 8.91e-13 9.84e-13 1.07e-12 1.16e-12 1.24e-12 1.32e-12 1.39e-12 1.54e-12 1.67e-12 1.8e-12 1.92e-12 2.03e-12 2.14e-12 2.25e-12 2.35e-12 2.46e-12 2.56e-12 
12 01 12  03 03 00 8.82e-13 8.76e-13 9.03e-13 1e-12 1.12e-12 1.23e-12 1.34e-12 1.45e-12 1.55e-12 1.64e-12 1.73e-12 1.89e-12 2.03e-12 2.16e-12 2.27e-12 2.37e-12 2.47e-12 2.56e-12 2.63e-12 2.71e-12 2.77e-12 
12 01 12  04 03 02 1.26e-12 1.26e-12 1.33e-12 1.53e-12 1.76e-12 1.98e-12 2.19e-12 2.38e-12 2.57e-12 2.72e-12 2.86e-12 3.11e-12 3.32e-12 3.49e-12 3.64e-12 3.77e-12 3.88e-12 3.99e-12 4.08e-12 4.17e-12 4.24e-12 
12 01 12  04 03 01 1.26e-12 1.22e-12 1.24e-12 1.33e-12 1.45e-12 1.57e-12 1.69e-12 1.81e-12 1.93e-12 2.05e-12 2.15e-12 2.35e-12 2.52e-12 2.67e-12 2.79e-12 2.91e-12 3e-12 3.09e-12 3.16e-12 3.22e-12 3.26e-12 
12 01 12  05 03 03 2.03e-12 1.98e-12 2.02e-12 2.15e-12 2.31e-12 2.47e-12 2.61e-12 2.73e-12 2.86e-12 2.98e-12 3.09e-12 3.29e-12 3.47e-12 3.64e-12 3.81e-12 3.96e-12 4.12e-12 4.28e-12 4.42e-12 4.57e-12 4.72e-12 
12 01 12  05 03 02 2.17e-12 2.13e-12 2.15e-12 2.29e-12 2.46e-12 2.63e-12 2.8e-12 2.94e-12 3.11e-12 3.24e-12 3.37e-12 3.61e-12 3.81e-12 4e-12 4.16e-12 4.3e-12 4.43e-12 4.54e-12 4.64e-12 4.73e-12 4.81e-12 
12 01 12  06 03 04 2.51e-12 2.46e-12 2.48e-12 2.61e-12 2.76e-12 2.91e-12 3.03e-12 3.17e-12 3.29e-12 3.41e-12 3.51e-12 3.72e-12 3.92e-12 4.11e-12 4.29e-12 4.47e-12 4.65e-12 4.83e-12 5e-12 5.18e-12 5.35e-12 
12 01 12  06 03 03 1.78e-12 1.74e-12 1.76e-12 1.86e-12 2e-12 2.14e-12 2.28e-12 2.42e-12 2.55e-12 2.67e-12 2.78e-12 3e-12 3.19e-12 3.37e-12 3.53e-12 3.69e-12 3.84e-12 3.97e-12 4.11e-12 4.23e-12 4.35e-12 
12 01 12  07 03 05 2.52e-12 2.43e-12 2.39e-12 2.37e-12 2.37e-12 2.39e-12 2.43e-12 2.46e-12 2.52e-12 2.57e-12 2.64e-12 2.78e-12 2.92e-12 3.06e-12 3.19e-12 3.34e-12 3.47e-12 3.6e-12 3.73e-12 3.86e-12 3.99e-12 
12 01 12  07 03 04 1.7e-12 1.7e-12 1.77e-12 1.97e-12 2.21e-12 2.45e-12 2.68e-12 2.9e-12 3.11e-12 3.3e-12 3.48e-12 3.81e-12 4.11e-12 4.38e-12 4.62e-12 4.85e-12 5.06e-12 5.28e-12 5.47e-12 5.66e-12 5.84e-12 
12 01 12  08 03 06 1.56e-12 1.53e-12 1.53e-12 1.57e-12 1.63e-12 1.72e-12 1.82e-12 1.95e-12 2.08e-12 2.22e-12 2.35e-12 2.62e-12 2.88e-12 3.11e-12 3.34e-12 3.56e-12 3.75e-12 3.94e-12 4.11e-12 4.27e-12 4.42e-12 
12 01 12  08 03 05 4.32e-12 4.31e-12 4.4e-12 4.61e-12 4.78e-12 4.95e-12 5.09e-12 5.21e-12 5.33e-12 5.45e-12 5.56e-12 5.76e-12 5.98e-12 6.2e-12 6.42e-12 6.65e-12 6.89e-12 7.12e-12 7.35e-12 7.59e-12 7.82e-12 
12 01 12  09 03 07 2.84e-12 3.04e-12 3.21e-12 3.51e-12 3.78e-12 4.03e-12 4.26e-12 4.49e-12 4.69e-12 4.88e-12 5.06e-12 5.4e-12 5.7e-12 5.97e-12 6.22e-12 6.47e-12 6.7e-12 6.91e-12 7.12e-12 7.32e-12 7.51e-12 
12 01 12  09 03 06 4.39e-12 4.62e-12 4.75e-12 4.92e-12 5.03e-12 5.14e-12 5.26e-12 5.38e-12 5.51e-12 5.65e-12 5.79e-12 6.08e-12 6.38e-12 6.68e-12 6.97e-12 7.27e-12 7.57e-12 7.86e-12 8.12e-12 8.41e-12 8.7e-12 
12 01 12  10 03 08 9.62e-13 2.03e-12 2.86e-12 3.92e-12 4.51e-12 4.91e-12 5.23e-12 5.52e-12 5.79e-12 6.05e-12 6.31e-12 6.81e-12 7.28e-12 7.72e-12 8.21e-12 8.61e-12 9.01e-12 9.39e-12 9.77e-12 1.01e-11 1.05e-11 
12 01 12  10 03 07 4.49e-13 9.9e-13 1.46e-12 2.14e-12 2.59e-12 2.92e-12 3.19e-12 3.42e-12 3.63e-12 3.83e-12 4.02e-12 4.37e-12 4.7e-12 5.02e-12 5.33e-12 5.61e-12 5.89e-12 6.16e-12 6.42e-12 6.67e-12 6.92e-12 
12 01 11  01 01 01 3.19e-14 3.46e-14 3.77e-14 4.49e-14 5.34e-14 6.31e-14 7.38e-14 8.56e-14 9.85e-14 1.12e-13 1.27e-13 1.6e-13 1.96e-13 2.36e-13 2.8e-13 3.27e-13 3.76e-13 4.29e-13 4.84e-13 5.42e-13 6.02e-13 
12 01 11  01 01 00 1.42e-14 1.58e-14 1.76e-14 2.19e-14 2.68e-14 3.23e-14 3.85e-14 4.53e-14 5.29e-14 6.12e-14 7.04e-14 9.13e-14 1.16e-13 1.43e-13 1.74e-13 2.08e-13 2.45e-13 2.84e-13 3.26e-13 3.7e-13 4.16e-13 
12 01 11  02 01 02 2.97e-14 3.17e-14 3.42e-14 4.06e-14 4.87e-14 5.87e-14 7.04e-14 8.38e-14 9.89e-14 1.16e-13 1.34e-13 1.75e-13 2.22e-13 2.74e-13 3.3e-13 3.91e-13 4.56e-13 5.25e-13 5.98e-13 6.74e-13 7.53e-13 
12 01 11  02 01 01 9.52e-14 1.01e-13 1.07e-13 1.22e-13 1.41e-13 1.62e-13 1.85e-13 2.09e-13 2.36e-13 2.64e-13 2.93e-13 3.55e-13 4.21e-13 4.92e-13 5.66e-13 6.44e-13 7.25e-13 8.09e-13 8.96e-13 9.85e-13 1.08e-12 
12 01 11  03 01 03 1.02e-13 1.08e-13 1.16e-13 1.36e-13 1.63e-13 1.95e-13 2.31e-13 2.7e-13 3.12e-13 3.56e-13 4.02e-13 4.97e-13 5.95e-13 6.95e-13 7.98e-13 9.02e-13 1.01e-12 1.12e-12 1.23e-12 1.34e-12 1.45e-12 
12 01 11  03 01 02 8e-14 8.24e-14 8.58e-14 9.55e-14 1.09e-13 1.25e-13 1.45e-13 1.68e-13 1.93e-13 2.21e-13 2.51e-13 3.19e-13 3.95e-13 4.79e-13 5.7e-13 6.67e-13 7.7e-13 8.78e-13 9.92e-13 1.11e-12 1.23e-12 
12 01 11  04 01 04 7.29e-14 7.89e-14 8.69e-14 1.1e-13 1.42e-13 1.82e-13 2.3e-13 2.83e-13 3.4e-13 4.02e-13 4.66e-13 6e-13 7.4e-13 8.84e-13 1.03e-12 1.18e-12 1.33e-12 1.49e-12 1.64e-12 1.8e-12 1.97e-12 
12 01 11  04 01 03 3.29e-13 3.51e-13 3.76e-13 4.34e-13 4.97e-13 5.65e-13 6.34e-13 7.04e-13 7.75e-13 8.45e-13 9.14e-13 1.05e-12 1.19e-12 1.32e-12 1.45e-12 1.58e-12 1.72e-12 1.85e-12 1.98e-12 2.11e-12 2.25e-12 
12 01 11  05 01 05 2.5e-13 2.74e-13 3.03e-13 3.77e-13 4.68e-13 5.72e-13 6.82e-13 7.96e-13 9.11e-13 1.03e-12 1.14e-12 1.36e-12 1.56e-12 1.76e-12 1.95e-12 2.13e-12 2.3e-12 2.47e-12 2.63e-12 2.78e-12 2.94e-12 
12 01 11  05 01 04 2.26e-13 2.35e-13 2.49e-13 2.86e-13 3.37e-13 3.99e-13 4.7e-13 5.46e-13 6.28e-13 7.12e-13 7.99e-13 9.74e-13 1.15e-12 1.33e-12 1.51e-12 1.68e-12 1.86e-12 2.03e-12 2.21e-12 2.38e-12 2.56e-12 
12 01 11  06 01 06 2.93e-13 3.25e-13 3.64e-13 4.6e-13 5.79e-13 7.14e-13 8.59e-13 1.01e-12 1.16e-12 1.31e-12 1.47e-12 1.76e-12 2.05e-12 2.32e-12 2.58e-12 2.83e-12 3.07e-12 3.3e-12 3.53e-12 3.75e-12 3.96e-12 
12 01 11  06 01 05 8.57e-13 9.46e-13 1.04e-12 1.22e-12 1.4e-12 1.57e-12 1.72e-12 1.87e-12 2.02e-12 2.16e-12 2.31e-12 2.6e-12 2.9e-12 3.21e-12 3.54e-12 3.89e-12 4.26e-12 4.64e-12 5.04e-12 5.46e-12 5.89e-12 
12 01 11  07 01 07 1.06e-12 1.12e-12 1.2e-12 1.37e-12 1.57e-12 1.77e-12 1.98e-12 2.19e-12 2.39e-12 2.58e-12 2.76e-12 3.11e-12 3.42e-12 3.71e-12 3.97e-12 4.22e-12 4.44e-12 4.65e-12 4.85e-12 5.04e-12 5.22e-12 
12 01 11  07 01 06 1.29e-12 1.35e-12 1.43e-12 1.61e-12 1.83e-12 2.07e-12 2.32e-12 2.58e-12 2.83e-12 3.08e-12 3.32e-12 3.77e-12 4.18e-12 4.55e-12 4.89e-12 5.2e-12 5.48e-12 5.74e-12 5.98e-12 6.19e-12 6.4e-12 
12 01 11  08 01 08 1.78e-12 1.84e-12 1.91e-12 2.07e-12 2.24e-12 2.42e-12 2.61e-12 2.8e-12 3e-12 3.19e-12 3.37e-12 3.72e-12 4.05e-12 4.35e-12 4.63e-12 4.89e-12 5.12e-12 5.34e-12 5.54e-12 5.73e-12 5.91e-12 
12 01 11  08 01 07 3.46e-12 3.66e-12 3.86e-12 4.23e-12 4.57e-12 4.88e-12 5.19e-12 5.49e-12 5.79e-12 6.09e-12 6.41e-12 7.06e-12 7.76e-12 8.51e-12 9.3e-12 1.01e-11 1.1e-11 1.19e-11 1.29e-11 1.38e-11 1.49e-11 
12 01 11  09 01 09 3.71e-12 3.8e-12 3.91e-12 4.16e-12 4.46e-12 4.77e-12 5.1e-12 5.43e-12 5.75e-12 6.06e-12 6.35e-12 6.9e-12 7.39e-12 7.83e-12 8.22e-12 8.58e-12 8.9e-12 9.19e-12 9.45e-12 9.69e-12 9.9e-12 
12 01 11  09 01 08 1.14e-11 1.15e-11 1.17e-11 1.2e-11 1.25e-11 1.29e-11 1.34e-11 1.39e-11 1.44e-11 1.49e-11 1.53e-11 1.61e-11 1.68e-11 1.74e-11 1.79e-11 1.83e-11 1.87e-11 1.89e-11 1.91e-11 1.92e-11 1.93e-11 
12 01 11  10 01 10 3.77e-12 3.76e-12 3.77e-12 3.78e-12 3.81e-12 3.87e-12 3.94e-12 4.02e-12 4.11e-12 4.2e-12 4.3e-12 4.49e-12 4.67e-12 4.83e-12 4.98e-12 5.12e-12 5.25e-12 5.36e-12 5.46e-12 5.54e-12 5.62e-12 
12 01 11  10 01 09 1.44e-11 1.47e-11 1.52e-11 1.61e-11 1.7e-11 1.8e-11 1.89e-11 1.98e-11 2.07e-11 2.16e-11 2.25e-11 2.42e-11 2.58e-11 2.73e-11 2.87e-11 3.01e-11 3.15e-11 3.29e-11 3.42e-11 3.54e-11 3.67e-11 
12 01 11  11 01 11 6.08e-12 6.5e-12 6.93e-12 7.71e-12 8.38e-12 8.98e-12 9.5e-12 9.97e-12 1.04e-11 1.08e-11 1.11e-11 1.17e-11 1.22e-11 1.27e-11 1.31e-11 1.34e-11 1.38e-11 1.41e-11 1.44e-11 1.46e-11 1.49e-11 
12 01 11  11 01 10 5.38e-11 5.41e-11 5.44e-11 5.45e-11 5.44e-11 5.44e-11 5.45e-11 5.47e-11 5.49e-11 5.51e-11 5.54e-11 5.6e-11 5.66e-11 5.72e-11 5.78e-11 5.83e-11 5.87e-11 5.9e-11 5.93e-11 5.94e-11 5.95e-11 
12 01 11  12 01 12 2.11e-12 2.24e-12 2.36e-12 2.53e-12 2.66e-12 2.77e-12 2.88e-12 2.98e-12 3.09e-12 3.21e-12 3.33e-12 3.58e-12 3.86e-12 4.14e-12 4.44e-12 4.75e-12 5.06e-12 5.38e-12 5.71e-12 6.04e-12 6.38e-12 
12 01 11  12 01 11 0 0 0 0 0 0 0 0 0 0 0 0 0 0 0 0 0 0 0 0 0 
12 01 11  03 03 01 1.83e-13 1.93e-13 2.06e-13 2.34e-13 2.65e-13 2.99e-13 3.32e-13 3.62e-13 3.94e-13 4.23e-13 4.52e-13 5.09e-13 5.65e-13 6.23e-13 6.84e-13 7.46e-13 8.11e-13 8.85e-13 9.56e-13 1.03e-12 1.11e-12 
12 01 11  03 03 00 2.15e-13 2.23e-13 2.32e-13 2.51e-13 2.71e-13 2.91e-13 3.1e-13 3.26e-13 3.43e-13 3.59e-13 3.75e-13 4.08e-13 4.41e-13 4.77e-13 5.16e-13 5.57e-13 6.03e-13 6.5e-13 7.01e-13 7.51e-13 8.05e-13 
12 01 11  04 03 02 3.82e-13 3.9e-13 3.99e-13 4.17e-13 4.37e-13 4.61e-13 4.84e-13 5.11e-13 5.42e-13 5.72e-13 6.05e-13 6.76e-13 7.53e-13 8.34e-13 9.24e-13 1.01e-12 1.1e-12 1.2e-12 1.3e-12 1.4e-12 1.51e-12 
12 01 11  04 03 01 2.94e-13 3.04e-13 3.16e-13 3.45e-13 3.77e-13 4.12e-13 4.48e-13 4.86e-13 5.27e-13 5.7e-13 6.13e-13 7.06e-13 8.08e-13 9.18e-13 1.03e-12 1.16e-12 1.29e-12 1.43e-12 1.57e-12 1.71e-12 1.87e-12 
12 01 11  05 03 03 1.92e-13 2.06e-13 2.24e-13 2.72e-13 3.35e-13 4.07e-13 4.84e-13 5.66e-13 6.47e-13 7.27e-13 8.07e-13 9.63e-13 1.11e-12 1.25e-12 1.39e-12 1.51e-12 1.64e-12 1.76e-12 1.88e-12 1.99e-12 2.1e-12 
12 01 11  05 03 02 4.08e-13 4.3e-13 4.53e-13 5.1e-13 5.8e-13 6.54e-13 7.34e-13 8.17e-13 8.96e-13 9.77e-13 1.06e-12 1.21e-12 1.36e-12 1.51e-12 1.65e-12 1.79e-12 1.93e-12 2.05e-12 2.19e-12 2.32e-12 2.44e-12 
12 01 11  06 03 04 1.18e-12 1.28e-12 1.38e-12 1.58e-12 1.77e-12 1.95e-12 2.1e-12 2.24e-12 2.38e-12 2.49e-12 2.6e-12 2.81e-12 3.01e-12 3.2e-12 3.39e-12 3.58e-12 3.77e-12 3.97e-12 4.17e-12 4.37e-12 4.58e-12 
12 01 11  06 03 03 7.6e-13 8.08e-13 8.62e-13 9.8e-13 1.1e-12 1.24e-12 1.37e-12 1.49e-12 1.61e-12 1.73e-12 1.85e-12 2.06e-12 2.26e-12 2.47e-12 2.66e-12 2.86e-12 3.05e-12 3.24e-12 3.43e-12 3.63e-12 3.82e-12 
12 01 11  07 03 05 3.02e-12 3.09e-12 3.17e-12 3.32e-12 3.45e-12 3.57e-12 3.68e-12 3.77e-12 3.86e-12 3.94e-12 4.04e-12 4.21e-12 4.39e-12 4.6e-12 4.81e-12 5.03e-12 5.28e-12 5.53e-12 5.8e-12 6.08e-12 6.36e-12 
12 01 11  07 03 04 4.6e-12 4.71e-12 4.82e-12 5e-12 5.14e-12 5.25e-12 5.36e-12 5.43e-12 5.51e-12 5.6e-12 5.67e-12 5.84e-12 6.02e-12 6.23e-12 6.43e-12 6.67e-12 6.91e-12 7.16e-12 7.43e-12 7.71e-12 7.99e-12 
12 01 11  08 03 06 8.79e-12 8.94e-12 9.07e-12 9.21e-12 9.25e-12 9.22e-12 9.2e-12 9.16e-12 9.13e-12 9.11e-12 9.1e-12 9.13e-12 9.19e-12 9.3e-12 9.44e-12 9.62e-12 9.71e-12 9.93e-12 1.02e-11 1.03e-11 1.05e-11 
12 01 11  08 03 05 6.03e-12 6.1e-12 6.16e-12 6.19e-12 6.24e-12 6.27e-12 6.28e-12 6.29e-12 6.33e-12 6.36e-12 6.42e-12 6.55e-12 6.72e-12 6.92e-12 7.14e-12 7.39e-12 7.65e-12 7.91e-12 8.19e-12 8.47e-12 8.77e-12 
12 01 11  09 03 07 8.5e-12 8.44e-12 8.33e-12 8.05e-12 7.81e-12 7.64e-12 7.51e-12 7.43e-12 7.39e-12 7.38e-12 7.4e-12 7.48e-12 7.63e-12 7.82e-12 8.02e-12 8.25e-12 8.5e-12 8.7e-12 8.96e-12 9.22e-12 9.49e-12 
12 01 11  09 03 06 1.12e-11 1.13e-11 1.13e-11 1.13e-11 1.11e-11 1.1e-11 1.08e-11 1.07e-11 1.07e-11 1.06e-11 1.06e-11 1.05e-11 1.06e-11 1.06e-11 1.08e-11 1.09e-11 1.1e-11 1.11e-11 1.12e-11 1.13e-11 1.14e-11 
12 01 11  10 03 08 5.97e-12 7.13e-12 7.59e-12 7.87e-12 7.82e-12 7.71e-12 7.67e-12 7.64e-12 7.63e-12 7.65e-12 7.69e-12 7.81e-12 7.98e-12 8.15e-12 8.34e-12 8.61e-12 8.79e-12 9.06e-12 9.23e-12 9.49e-12 9.75e-12 
12 01 11  10 03 07 7.32e-12 8.53e-12 8.98e-12 8.94e-12 8.56e-12 8.24e-12 8.06e-12 7.84e-12 7.77e-12 7.71e-12 7.69e-12 7.76e-12 7.9e-12 8.08e-12 8.26e-12 8.53e-12 8.79e-12 8.97e-12 9.23e-12 9.49e-12 9.67e-12 
03 03 01  01 01 01 3.36e-12 3.11e-12 2.97e-12 2.87e-12 2.9e-12 3.01e-12 3.14e-12 3.3e-12 3.46e-12 3.63e-12 3.8e-12 4.13e-12 4.45e-12 4.77e-12 5.07e-12 5.36e-12 5.64e-12 5.91e-12 6.16e-12 6.41e-12 6.65e-12 
03 03 01  01 01 00 1.41e-12 1.1e-12 9.14e-13 7.19e-13 6.33e-13 5.94e-13 5.79e-13 5.76e-13 5.82e-13 5.93e-13 6.07e-13 6.41e-13 6.79e-13 7.19e-13 7.57e-13 7.95e-13 8.32e-13 8.66e-13 8.99e-13 9.31e-13 9.6e-13 
03 03 01  02 01 02 2.57e-12 2.25e-12 2.08e-12 1.94e-12 1.93e-12 1.97e-12 2.02e-12 2.09e-12 2.16e-12 2.24e-12 2.31e-12 2.46e-12 2.61e-12 2.75e-12 2.88e-12 3e-12 3.12e-12 3.24e-12 3.34e-12 3.45e-12 3.55e-12 
03 03 01  02 01 01 2.83e-12 2.76e-12 2.72e-12 2.74e-12 2.85e-12 3e-12 3.17e-12 3.36e-12 3.56e-12 3.75e-12 3.94e-12 4.32e-12 4.68e-12 5.02e-12 5.36e-12 5.68e-12 6e-12 6.3e-12 6.6e-12 6.89e-12 7.17e-12 
03 03 01  03 01 03 2.66e-12 2.54e-12 2.51e-12 2.56e-12 2.65e-12 2.75e-12 2.86e-12 2.98e-12 3.1e-12 3.22e-12 3.34e-12 3.59e-12 3.83e-12 4.07e-12 4.3e-12 4.52e-12 4.74e-12 4.95e-12 5.16e-12 5.36e-12 5.56e-12 
03 03 01  03 01 02 4.54e-12 4.55e-12 4.6e-12 4.75e-12 4.93e-12 5.11e-12 5.29e-12 5.46e-12 5.63e-12 5.79e-12 5.95e-12 6.25e-12 6.52e-12 6.77e-12 7e-12 7.22e-12 7.41e-12 7.6e-12 7.77e-12 7.94e-12 8.09e-12 
03 03 01  04 01 04 3.12e-12 2.9e-12 2.79e-12 2.73e-12 2.78e-12 2.88e-12 3e-12 3.13e-12 3.25e-12 3.38e-12 3.5e-12 3.73e-12 3.95e-12 4.15e-12 4.34e-12 4.52e-12 4.69e-12 4.86e-12 5.02e-12 5.17e-12 5.33e-12 
03 03 01  04 01 03 3.77e-12 3.73e-12 3.77e-12 3.94e-12 4.13e-12 4.32e-12 4.51e-12 4.7e-12 4.87e-12 5.04e-12 5.2e-12 5.51e-12 5.79e-12 6.05e-12 6.28e-12 6.49e-12 6.69e-12 6.87e-12 7.04e-12 7.19e-12 7.33e-12 
03 03 01  05 01 05 4.04e-12 3.87e-12 3.81e-12 3.81e-12 3.88e-12 3.95e-12 4.03e-12 4.1e-12 4.16e-12 4.21e-12 4.26e-12 4.34e-12 4.41e-12 4.46e-12 4.51e-12 4.54e-12 4.57e-12 4.59e-12 4.6e-12 4.61e-12 4.62e-12 
03 03 01  05 01 04 8.69e-12 8.65e-12 8.66e-12 8.78e-12 8.93e-12 9.1e-12 9.27e-12 9.43e-12 9.59e-12 9.75e-12 9.9e-12 1.02e-11 1.04e-11 1.07e-11 1.09e-11 1.11e-11 1.13e-11 1.14e-11 1.16e-11 1.18e-11 1.19e-11 
03 03 01  06 01 06 6.33e-12 6.35e-12 6.38e-12 6.46e-12 6.55e-12 6.65e-12 6.76e-12 6.87e-12 6.97e-12 7.07e-12 7.17e-12 7.34e-12 7.48e-12 7.61e-12 7.72e-12 7.83e-12 7.93e-12 8.03e-12 8.13e-12 8.22e-12 8.32e-12 
03 03 01  06 01 05 3.92e-12 3.75e-12 3.67e-12 3.67e-12 3.77e-12 3.92e-12 4.08e-12 4.24e-12 4.4e-12 4.55e-12 4.69e-12 4.94e-12 5.16e-12 5.36e-12 5.53e-12 5.68e-12 5.81e-12 5.93e-12 6.03e-12 6.13e-12 6.21e-12 
03 03 01  07 01 07 3.71e-12 3.97e-12 4.29e-12 4.97e-12 5.6e-12 6.15e-12 6.62e-12 7.01e-12 7.35e-12 7.64e-12 7.88e-12 8.27e-12 8.56e-12 8.78e-12 8.94e-12 9.05e-12 9.13e-12 9.18e-12 9.19e-12 9.19e-12 9.16e-12 
03 03 01  07 01 06 3.27e-12 3.29e-12 3.39e-12 3.77e-12 4.22e-12 4.68e-12 5.12e-12 5.53e-12 5.9e-12 6.24e-12 6.54e-12 7.05e-12 7.46e-12 7.79e-12 8.05e-12 8.26e-12 8.44e-12 8.59e-12 8.72e-12 8.82e-12 8.92e-12 
03 03 01  08 01 08 1.37e-12 1.97e-12 2.5e-12 3.43e-12 4.23e-12 4.93e-12 5.53e-12 6.06e-12 6.52e-12 6.94e-12 7.3e-12 7.92e-12 8.4e-12 8.78e-12 9.08e-12 9.3e-12 9.46e-12 9.58e-12 9.64e-12 9.67e-12 9.65e-12 
03 03 01  08 01 07 3.41e-13 5.14e-13 6.23e-13 7.69e-13 8.93e-13 1.02e-12 1.15e-12 1.28e-12 1.41e-12 1.53e-12 1.64e-12 1.83e-12 1.99e-12 2.13e-12 2.25e-12 2.35e-12 2.44e-12 2.53e-12 2.61e-12 2.69e-12 2.77e-12 
03 03 01  09 01 09 7.9e-14 3.09e-13 6.4e-13 1.44e-12 2.3e-12 3.17e-12 4.01e-12 4.8e-12 5.53e-12 6.2e-12 6.81e-12 7.86e-12 8.73e-12 9.45e-12 1.01e-11 1.06e-11 1.1e-11 1.14e-11 1.18e-11 1.21e-11 1.24e-11 
03 03 01  09 01 08 1.06e-14 5.66e-14 1.37e-13 3.64e-13 6.36e-13 9.34e-13 1.25e-12 1.56e-12 1.87e-12 2.16e-12 2.44e-12 2.94e-12 3.37e-12 3.73e-12 4.03e-12 4.3e-12 4.53e-12 4.73e-12 4.92e-12 5.08e-12 5.23e-12 
03 03 01  10 01 10 3.38e-15 3.62e-14 1.22e-13 4.38e-13 8.62e-13 1.32e-12 1.79e-12 2.24e-12 2.66e-12 3.06e-12 3.43e-12 4.11e-12 4.69e-12 5.19e-12 5.61e-12 5.97e-12 6.27e-12 6.51e-12 6.71e-12 6.87e-12 6.98e-12 
03 03 01  10 01 09 6.96e-17 1.3e-15 5.93e-15 2.96e-14 7e-14 1.2e-13 1.76e-13 2.34e-13 2.93e-13 3.54e-13 4.19e-13 5.59e-13 7.21e-13 9.09e-13 1.13e-12 1.37e-12 1.64e-12 1.95e-12 2.28e-12 2.64e-12 3.02e-12 
03 03 01  11 01 11 6.65e-17 2.56e-15 1.65e-14 1.14e-13 3.2e-13 6.12e-13 9.64e-13 1.35e-12 1.75e-12 2.15e-12 2.55e-12 3.32e-12 4.03e-12 4.68e-12 5.29e-12 5.84e-12 6.35e-12 6.82e-12 7.26e-12 7.67e-12 8.05e-12 
03 03 01  11 01 10 4.54e-18 2.72e-16 2.16e-15 1.8e-14 5.37e-14 1.06e-13 1.68e-13 2.35e-13 3.05e-13 3.76e-13 4.47e-13 5.88e-13 7.28e-13 8.69e-13 1.01e-12 1.16e-12 1.3e-12 1.46e-12 1.61e-12 1.77e-12 1.94e-12 
03 03 01  12 01 12 9.37e-19 1.29e-16 1.57e-15 2.05e-14 7.81e-14 1.81e-13 3.23e-13 4.98e-13 6.95e-13 9.09e-13 1.13e-12 1.6e-12 2.07e-12 2.54e-12 3e-12 3.45e-12 3.9e-12 4.33e-12 4.75e-12 5.17e-12 5.58e-12 
03 03 01  12 01 11 3.88e-20 1.05e-17 1.79e-16 3.26e-15 1.48e-14 3.83e-14 7.4e-14 1.2e-13 1.76e-13 2.38e-13 3.06e-13 4.54e-13 6.15e-13 7.87e-13 9.69e-13 1.16e-12 1.36e-12 1.58e-12 1.8e-12 2.03e-12 2.27e-12 
03 03 01  03 03 01 0 0 0 0 0 0 0 0 0 0 0 0 0 0 0 0 0 0 0 0 0 
03 03 01  03 03 00 1.06e-10 1.05e-10 1.03e-10 9.94e-11 9.68e-11 9.49e-11 9.33e-11 9.2e-11 9.09e-11 8.99e-11 8.91e-11 8.77e-11 8.66e-11 8.57e-11 8.49e-11 8.42e-11 8.35e-11 8.28e-11 8.21e-11 8.14e-11 8.06e-11 
03 03 01  04 03 02 9.47e-12 1.53e-11 1.94e-11 2.49e-11 2.82e-11 3.05e-11 3.22e-11 3.35e-11 3.45e-11 3.54e-11 3.62e-11 3.74e-11 3.83e-11 3.9e-11 3.95e-11 3.99e-11 4.02e-11 4.04e-11 4.05e-11 4.05e-11 4.04e-11 
03 03 01  04 03 01 3.59e-12 6.28e-12 8.5e-12 1.19e-11 1.45e-11 1.66e-11 1.85e-11 2.01e-11 2.16e-11 2.29e-11 2.42e-11 2.63e-11 2.8e-11 2.94e-11 3.07e-11 3.18e-11 3.26e-11 3.32e-11 3.39e-11 3.43e-11 3.46e-11 
03 03 01  05 03 03 5.35e-13 1.46e-12 2.39e-12 3.95e-12 5.23e-12 6.35e-12 7.38e-12 8.33e-12 9.24e-12 1.01e-11 1.09e-11 1.24e-11 1.38e-11 1.51e-11 1.62e-11 1.73e-11 1.84e-11 1.92e-11 2e-11 2.08e-11 2.15e-11 
03 03 01  05 03 02 6.36e-13 1.83e-12 3.16e-12 5.51e-12 7.45e-12 8.96e-12 1.01e-11 1.12e-11 1.21e-11 1.3e-11 1.37e-11 1.49e-11 1.58e-11 1.67e-11 1.74e-11 1.8e-11 1.84e-11 1.88e-11 1.91e-11 1.92e-11 1.94e-11 
03 03 01  06 03 04 8.74e-14 5.07e-13 1.24e-12 3.11e-12 4.99e-12 6.71e-12 8.14e-12 9.4e-12 1.06e-11 1.16e-11 1.24e-11 1.4e-11 1.52e-11 1.63e-11 1.72e-11 1.79e-11 1.84e-11 1.9e-11 1.93e-11 1.96e-11 1.98e-11 
03 03 01  06 03 03 4.2e-14 2.35e-13 5.63e-13 1.38e-12 2.22e-12 3e-12 3.71e-12 4.36e-12 4.95e-12 5.51e-12 6.04e-12 7.02e-12 7.93e-12 8.81e-12 9.66e-12 1.05e-11 1.13e-11 1.22e-11 1.3e-11 1.39e-11 1.47e-11 
03 03 01  07 03 05 2.48e-15 3.19e-14 1.15e-13 4.23e-13 8.21e-13 1.24e-12 1.65e-12 2.05e-12 2.44e-12 2.8e-12 3.15e-12 3.82e-12 4.46e-12 5.08e-12 5.68e-12 6.27e-12 6.86e-12 7.45e-12 8.04e-12 8.63e-12 9.24e-12 
03 03 01  07 03 04 6.89e-15 8.82e-14 3.17e-13 1.15e-12 2.17e-12 3.19e-12 4.12e-12 4.96e-12 5.72e-12 6.42e-12 7.08e-12 8.29e-12 9.39e-12 1.04e-11 1.14e-11 1.23e-11 1.31e-11 1.39e-11 1.46e-11 1.53e-11 1.59e-11 
03 03 01  08 03 06 1.83e-16 6.16e-15 3.68e-14 2.28e-13 5.87e-13 1.05e-12 1.57e-12 2.11e-12 2.65e-12 3.18e-12 3.71e-12 4.74e-12 5.72e-12 6.7e-12 7.65e-12 8.6e-12 9.55e-12 1.05e-11 1.15e-11 1.24e-11 1.34e-11 
03 03 01  08 03 05 1.72e-16 5.6e-15 3.21e-14 1.88e-13 4.63e-13 8.03e-13 1.17e-12 1.54e-12 1.9e-12 2.24e-12 2.58e-12 3.19e-12 3.76e-12 4.29e-12 4.79e-12 5.26e-12 5.73e-12 6.18e-12 6.64e-12 7.08e-12 7.52e-12 
03 03 01  09 03 07 2.67e-18 2.46e-16 2.38e-15 2.37e-14 7.72e-14 1.61e-13 2.66e-13 3.87e-13 5.19e-13 6.51e-13 7.92e-13 1.06e-12 1.32e-12 1.56e-12 1.8e-12 2.01e-12 2.21e-12 2.38e-12 2.56e-12 2.72e-12 2.86e-12 
03 03 01  09 03 06 9.8e-18 9.24e-16 9.1e-15 9.19e-14 2.99e-13 6.12e-13 9.97e-13 1.42e-12 1.87e-12 2.32e-12 2.78e-12 3.68e-12 4.55e-12 5.41e-12 6.24e-12 7.03e-12 7.82e-12 8.58e-12 9.34e-12 1.01e-11 1.08e-11 
03 03 01  10 03 08 9.01e-20 2.85e-17 5.11e-16 9.38e-15 4.14e-14 1.04e-13 1.94e-13 3.09e-13 4.45e-13 5.91e-13 7.53e-13 1.1e-12 1.47e-12 1.84e-12 2.23e-12 2.61e-12 2.99e-12 3.37e-12 3.74e-12 4.12e-12 4.49e-12 
03 03 01  10 03 07 2.01e-19 6.46e-17 1.17e-15 2.19e-14 9.8e-14 2.45e-13 4.58e-13 7.25e-13 1.03e-12 1.36e-12 1.71e-12 2.42e-12 3.14e-12 3.86e-12 4.57e-12 5.25e-12 5.94e-12 6.62e-12 7.28e-12 7.96e-12 8.63e-12 
03 03 00  01 01 01 4.83e-13 4.24e-13 3.94e-13 3.75e-13 3.81e-13 3.95e-13 4.13e-13 4.34e-13 4.55e-13 4.77e-13 5e-13 5.45e-13 5.89e-13 6.32e-13 6.73e-13 7.11e-13 7.47e-13 7.8e-13 8.11e-13 8.4e-13 8.68e-13 
03 03 00  01 01 00 3.33e-12 3.12e-12 3e-12 2.95e-12 3.02e-12 3.17e-12 3.36e-12 3.56e-12 3.76e-12 3.97e-12 4.17e-12 4.55e-12 4.91e-12 5.25e-12 5.58e-12 5.88e-12 6.18e-12 6.46e-12 6.73e-12 6.99e-12 7.25e-12 
03 03 00  02 01 02 2.08e-12 2.11e-12 2.16e-12 2.28e-12 2.43e-12 2.59e-12 2.76e-12 2.94e-12 3.12e-12 3.29e-12 3.48e-12 3.83e-12 4.19e-12 4.54e-12 4.89e-12 5.23e-12 5.57e-12 5.91e-12 6.25e-12 6.58e-12 6.91e-12 
03 03 00  02 01 01 2.75e-12 2.58e-12 2.51e-12 2.48e-12 2.52e-12 2.58e-12 2.65e-12 2.72e-12 2.8e-12 2.88e-12 2.95e-12 3.11e-12 3.26e-12 3.4e-12 3.54e-12 3.67e-12 3.79e-12 3.9e-12 4.01e-12 4.11e-12 4.2e-12 
03 03 00  03 01 03 2e-12 1.88e-12 1.85e-12 1.91e-12 2.04e-12 2.18e-12 2.33e-12 2.48e-12 2.62e-12 2.76e-12 2.9e-12 3.15e-12 3.39e-12 3.62e-12 3.83e-12 4.02e-12 4.21e-12 4.39e-12 4.55e-12 4.71e-12 4.87e-12 
03 03 00  03 01 02 3.58e-12 3.47e-12 3.42e-12 3.42e-12 3.49e-12 3.61e-12 3.74e-12 3.89e-12 4.04e-12 4.19e-12 4.34e-12 4.63e-12 4.9e-12 5.15e-12 5.39e-12 5.61e-12 5.81e-12 6.01e-12 6.19e-12 6.36e-12 6.51e-12 
03 03 00  04 01 04 2.68e-12 2.73e-12 2.81e-12 3.02e-12 3.2e-12 3.36e-12 3.5e-12 3.63e-12 3.74e-12 3.85e-12 3.95e-12 4.14e-12 4.32e-12 4.5e-12 4.67e-12 4.83e-12 5e-12 5.16e-12 5.33e-12 5.49e-12 5.66e-12 
03 03 00  04 01 03 7.35e-12 7.35e-12 7.36e-12 7.45e-12 7.58e-12 7.72e-12 7.88e-12 8.03e-12 8.19e-12 8.34e-12 8.49e-12 8.77e-12 9.03e-12 9.27e-12 9.49e-12 9.69e-12 9.88e-12 1.01e-11 1.02e-11 1.04e-11 1.05e-11 
03 03 00  05 01 05 4.83e-12 4.8e-12 4.8e-12 4.83e-12 4.89e-12 4.97e-12 5.05e-12 5.13e-12 5.22e-12 5.31e-12 5.4e-12 5.58e-12 5.77e-12 5.97e-12 6.18e-12 6.41e-12 6.64e-12 6.89e-12 7.14e-12 7.4e-12 7.68e-12 
03 03 00  05 01 04 4.8e-12 4.55e-12 4.44e-12 4.45e-12 4.57e-12 4.73e-12 4.89e-12 5.05e-12 5.21e-12 5.36e-12 5.5e-12 5.76e-12 6e-12 6.21e-12 6.4e-12 6.56e-12 6.71e-12 6.84e-12 6.95e-12 7.04e-12 7.13e-12 
03 03 00  06 01 06 4.31e-12 4.29e-12 4.34e-12 4.53e-12 4.75e-12 4.95e-12 5.13e-12 5.28e-12 5.42e-12 5.53e-12 5.64e-12 5.8e-12 5.93e-12 6.03e-12 6.11e-12 6.16e-12 6.19e-12 6.21e-12 6.21e-12 6.2e-12 6.17e-12 
03 03 00  06 01 05 5.7e-12 5.83e-12 6.04e-12 6.52e-12 6.99e-12 7.41e-12 7.77e-12 8.1e-12 8.38e-12 8.63e-12 8.86e-12 9.23e-12 9.53e-12 9.78e-12 9.99e-12 1.02e-11 1.03e-11 1.05e-11 1.06e-11 1.07e-11 1.08e-11 
03 03 00  07 01 07 4.78e-12 5.04e-12 5.3e-12 5.79e-12 6.22e-12 6.6e-12 6.93e-12 7.23e-12 7.49e-12 7.73e-12 7.94e-12 8.29e-12 8.56e-12 8.76e-12 8.91e-12 9.02e-12 9.08e-12 9.11e-12 9.1e-12 9.07e-12 9.01e-12 
03 03 00  07 01 06 2.78e-12 2.57e-12 2.44e-12 2.36e-12 2.4e-12 2.51e-12 2.64e-12 2.79e-12 2.93e-12 3.08e-12 3.21e-12 3.46e-12 3.67e-12 3.86e-12 4.02e-12 4.17e-12 4.31e-12 4.44e-12 4.56e-12 4.67e-12 4.79e-12 
03 03 00  08 01 08 1.28e-12 1.88e-12 2.43e-12 3.44e-12 4.33e-12 5.12e-12 5.8e-12 6.39e-12 6.91e-12 7.36e-12 7.76e-12 8.42e-12 8.93e-12 9.34e-12 9.65e-12 9.9e-12 1.01e-11 1.02e-11 1.03e-11 1.04e-11 1.04e-11 
03 03 00  08 01 07 3.37e-13 5.69e-13 7.77e-13 1.18e-12 1.57e-12 1.96e-12 2.32e-12 2.66e-12 2.98e-12 3.26e-12 3.51e-12 3.94e-12 4.27e-12 4.52e-12 4.72e-12 4.87e-12 4.99e-12 5.08e-12 5.15e-12 5.2e-12 5.23e-12 
03 03 00  09 01 09 6.39e-14 2.65e-13 5.69e-13 1.33e-12 2.15e-12 2.95e-12 3.72e-12 4.43e-12 5.09e-12 5.7e-12 6.24e-12 7.19e-12 7.96e-12 8.59e-12 9.11e-12 9.53e-12 9.88e-12 1.02e-11 1.04e-11 1.06e-11 1.07e-11 
03 03 00  09 01 08 5.47e-15 2.86e-14 6.79e-14 1.8e-13 3.24e-13 4.95e-13 6.86e-13 8.87e-13 1.09e-12 1.28e-12 1.47e-12 1.8e-12 2.09e-12 2.33e-12 2.54e-12 2.73e-12 2.91e-12 3.08e-12 3.24e-12 3.4e-12 3.57e-12 
03 03 00  10 01 10 2.98e-15 3.22e-14 1.11e-13 4.17e-13 8.68e-13 1.4e-12 1.96e-12 2.53e-12 3.09e-12 3.63e-12 4.13e-12 5.06e-12 5.86e-12 6.55e-12 7.14e-12 7.64e-12 8.07e-12 8.43e-12 8.74e-12 8.99e-12 9.19e-12 
03 03 00  10 01 09 2.34e-16 4.2e-15 1.83e-14 8.25e-14 1.79e-13 2.88e-13 4.01e-13 5.14e-13 6.28e-13 7.43e-13 8.63e-13 1.12e-12 1.4e-12 1.71e-12 2.05e-12 2.42e-12 2.83e-12 3.26e-12 3.72e-12 4.2e-12 4.71e-12 
03 03 00  11 01 11 5.9e-17 2.24e-15 1.42e-14 9.51e-14 2.57e-13 4.79e-13 7.38e-13 1.02e-12 1.3e-12 1.58e-12 1.85e-12 2.37e-12 2.83e-12 3.26e-12 3.64e-12 3.98e-12 4.3e-12 4.58e-12 4.85e-12 5.09e-12 5.31e-12 
03 03 00  11 01 10 2.39e-18 1.48e-16 1.22e-15 1.12e-14 3.65e-14 7.76e-14 1.32e-13 1.95e-13 2.64e-13 3.36e-13 4.1e-13 5.58e-13 7.02e-13 8.4e-13 9.71e-13 1.1e-12 1.22e-12 1.33e-12 1.44e-12 1.55e-12 1.66e-12 
03 03 00  12 01 12 1.14e-18 1.59e-16 1.94e-15 2.55e-14 9.79e-14 2.27e-13 4.05e-13 6.23e-13 8.67e-13 1.13e-12 1.4e-12 1.96e-12 2.52e-12 3.05e-12 3.56e-12 4.04e-12 4.49e-12 4.92e-12 5.31e-12 5.69e-12 6.03e-12 
03 03 00  12 01 11 4.55e-20 1.21e-17 2.02e-16 3.5e-15 1.51e-14 3.73e-14 6.91e-14 1.08e-13 1.53e-13 2.02e-13 2.54e-13 3.64e-13 4.8e-13 6.02e-13 7.31e-13 8.66e-13 1.01e-12 1.16e-12 1.32e-12 1.48e-12 1.65e-12 
03 03 00  03 03 01 1.06e-10 1.05e-10 1.03e-10 9.94e-11 9.68e-11 9.49e-11 9.33e-11 9.2e-11 9.09e-11 8.99e-11 8.91e-11 8.77e-11 8.66e-11 8.57e-11 8.49e-11 8.42e-11 8.35e-11 8.28e-11 8.21e-11 8.14e-11 8.06e-11 
03 03 00  03 03 00 0 0 0 0 0 0 0 0 0 0 0 0 0 0 0 0 0 0 0 0 0 
03 03 00  04 03 02 3.78e-12 6.53e-12 8.82e-12 1.23e-11 1.49e-11 1.7e-11 1.88e-11 2.04e-11 2.19e-11 2.32e-11 2.45e-11 2.66e-11 2.83e-11 2.96e-11 3.08e-11 3.18e-11 3.26e-11 3.31e-11 3.36e-11 3.4e-11 3.42e-11 
03 03 00  04 03 01 9.72e-12 1.55e-11 1.98e-11 2.52e-11 2.85e-11 3.07e-11 3.24e-11 3.37e-11 3.48e-11 3.56e-11 3.63e-11 3.74e-11 3.83e-11 3.89e-11 3.94e-11 3.98e-11 4.01e-11 4.01e-11 4.02e-11 4.02e-11 4.01e-11 
03 03 00  05 03 03 6.09e-13 1.77e-12 3.06e-12 5.42e-12 7.37e-12 8.96e-12 1.02e-11 1.13e-11 1.23e-11 1.32e-11 1.4e-11 1.54e-11 1.63e-11 1.73e-11 1.79e-11 1.85e-11 1.89e-11 1.93e-11 1.96e-11 1.98e-11 1.98e-11 
03 03 00  05 03 02 5.12e-13 1.39e-12 2.28e-12 3.78e-12 5e-12 6.07e-12 7.07e-12 8e-12 8.89e-12 9.73e-12 1.05e-11 1.21e-11 1.34e-11 1.47e-11 1.6e-11 1.7e-11 1.8e-11 1.9e-11 1.98e-11 2.06e-11 2.14e-11 
03 03 00  06 03 04 4.06e-14 2.28e-13 5.5e-13 1.37e-12 2.24e-12 3.07e-12 3.85e-12 4.59e-12 5.26e-12 5.89e-12 6.49e-12 7.57e-12 8.56e-12 9.49e-12 1.04e-11 1.12e-11 1.2e-11 1.28e-11 1.37e-11 1.45e-11 1.53e-11 
03 03 00  06 03 03 9.12e-14 5.24e-13 1.27e-12 3.12e-12 4.93e-12 6.51e-12 7.91e-12 9.05e-12 1e-11 1.1e-11 1.18e-11 1.32e-11 1.44e-11 1.55e-11 1.64e-11 1.71e-11 1.77e-11 1.84e-11 1.88e-11 1.91e-11 1.95e-11 
03 03 00  07 03 05 6.01e-15 7.76e-14 2.82e-13 1.03e-12 1.99e-12 2.96e-12 3.87e-12 4.7e-12 5.47e-12 6.18e-12 6.85e-12 8.11e-12 9.26e-12 1.03e-11 1.13e-11 1.23e-11 1.32e-11 1.4e-11 1.48e-11 1.55e-11 1.62e-11 
03 03 00  07 03 04 3.23e-15 4.1e-14 1.47e-13 5.27e-13 1.01e-12 1.5e-12 1.97e-12 2.42e-12 2.84e-12 3.23e-12 3.62e-12 4.32e-12 5e-12 5.63e-12 6.26e-12 6.87e-12 7.46e-12 8.07e-12 8.66e-12 9.26e-12 9.87e-12 
03 03 00  08 03 06 9.86e-17 3.22e-15 1.86e-14 1.11e-13 2.76e-13 4.83e-13 7.11e-13 9.45e-13 1.18e-12 1.41e-12 1.63e-12 2.06e-12 2.46e-12 2.82e-12 3.19e-12 3.52e-12 3.86e-12 4.17e-12 4.5e-12 4.81e-12 5.12e-12 
03 03 00  08 03 05 2.73e-16 9e-15 5.24e-14 3.13e-13 7.79e-13 1.36e-12 1.99e-12 2.62e-12 3.25e-12 3.86e-12 4.44e-12 5.57e-12 6.63e-12 7.63e-12 8.6e-12 9.55e-12 1.05e-11 1.13e-11 1.22e-11 1.31e-11 1.39e-11 
03 03 00  09 03 07 4.82e-18 4.62e-16 4.65e-15 4.97e-14 1.7e-13 3.65e-13 6.16e-13 9.11e-13 1.24e-12 1.58e-12 1.93e-12 2.67e-12 3.42e-12 4.2e-12 4.99e-12 5.78e-12 6.59e-12 7.42e-12 8.26e-12 9.11e-12 9.98e-12 
03 03 00  09 03 06 7.41e-18 6.9e-16 6.74e-15 6.76e-14 2.2e-13 4.5e-13 7.31e-13 1.04e-12 1.36e-12 1.68e-12 2e-12 2.62e-12 3.22e-12 3.8e-12 4.37e-12 4.94e-12 5.52e-12 6.09e-12 6.69e-12 7.29e-12 7.91e-12 
03 03 00  10 03 08 5.34e-20 1.66e-17 2.95e-16 5.36e-15 2.38e-14 6.02e-14 1.15e-13 1.87e-13 2.73e-13 3.7e-13 4.77e-13 7.09e-13 9.54e-13 1.21e-12 1.47e-12 1.72e-12 1.97e-12 2.21e-12 2.45e-12 2.69e-12 2.9e-12 
03 03 00  10 03 07 2.21e-19 7.09e-17 1.28e-15 2.36e-14 1.03e-13 2.53e-13 4.65e-13 7.25e-13 1.02e-12 1.33e-12 1.65e-12 2.31e-12 2.95e-12 3.57e-12 4.16e-12 4.72e-12 5.23e-12 5.73e-12 6.2e-12 6.64e-12 7.05e-12 
04 03 02  01 01 01 2.21e-12 2.01e-12 1.89e-12 1.75e-12 1.69e-12 1.67e-12 1.66e-12 1.67e-12 1.69e-12 1.72e-12 1.75e-12 1.82e-12 1.89e-12 1.96e-12 2.04e-12 2.11e-12 2.18e-12 2.25e-12 2.31e-12 2.37e-12 2.44e-12 
04 03 02  01 01 00 1.45e-12 1.33e-12 1.26e-12 1.17e-12 1.13e-12 1.1e-12 1.09e-12 1.08e-12 1.09e-12 1.1e-12 1.11e-12 1.16e-12 1.21e-12 1.26e-12 1.32e-12 1.39e-12 1.46e-12 1.53e-12 1.6e-12 1.67e-12 1.75e-12 
04 03 02  02 01 02 5.09e-12 4.68e-12 4.45e-12 4.25e-12 4.22e-12 4.29e-12 4.41e-12 4.56e-12 4.72e-12 4.89e-12 5.05e-12 5.38e-12 5.69e-12 5.99e-12 6.27e-12 6.53e-12 6.79e-12 7.03e-12 7.27e-12 7.51e-12 7.73e-12 
04 03 02  02 01 01 1.57e-12 1.48e-12 1.45e-12 1.42e-12 1.43e-12 1.46e-12 1.49e-12 1.54e-12 1.58e-12 1.63e-12 1.68e-12 1.77e-12 1.86e-12 1.95e-12 2.03e-12 2.11e-12 2.19e-12 2.27e-12 2.35e-12 2.42e-12 2.5e-12 
04 03 02  03 01 03 4.19e-12 3.83e-12 3.63e-12 3.43e-12 3.38e-12 3.38e-12 3.42e-12 3.47e-12 3.53e-12 3.6e-12 3.67e-12 3.8e-12 3.94e-12 4.07e-12 4.19e-12 4.32e-12 4.44e-12 4.56e-12 4.68e-12 4.79e-12 4.91e-12 
04 03 02  03 01 02 3.8e-12 3.67e-12 3.65e-12 3.73e-12 3.91e-12 4.12e-12 4.35e-12 4.58e-12 4.81e-12 5.04e-12 5.26e-12 5.67e-12 6.05e-12 6.41e-12 6.74e-12 7.05e-12 7.35e-12 7.63e-12 7.9e-12 8.15e-12 8.41e-12 
04 03 02  04 01 04 2.47e-12 2.47e-12 2.51e-12 2.67e-12 2.84e-12 3.02e-12 3.19e-12 3.36e-12 3.52e-12 3.67e-12 3.81e-12 4.08e-12 4.33e-12 4.57e-12 4.8e-12 5.02e-12 5.23e-12 5.44e-12 5.64e-12 5.84e-12 6.04e-12 
04 03 02  04 01 03 1.88e-12 1.95e-12 2.08e-12 2.4e-12 2.72e-12 3.01e-12 3.28e-12 3.51e-12 3.73e-12 3.93e-12 4.11e-12 4.43e-12 4.72e-12 4.97e-12 5.2e-12 5.41e-12 5.6e-12 5.78e-12 5.95e-12 6.1e-12 6.24e-12 
04 03 02  05 01 05 3.61e-12 3.49e-12 3.48e-12 3.62e-12 3.84e-12 4.09e-12 4.34e-12 4.59e-12 4.83e-12 5.05e-12 5.26e-12 5.64e-12 5.97e-12 6.27e-12 6.54e-12 6.78e-12 7e-12 7.2e-12 7.38e-12 7.56e-12 7.72e-12 
04 03 02  05 01 04 2.01e-12 2.11e-12 2.22e-12 2.42e-12 2.62e-12 2.81e-12 2.98e-12 3.14e-12 3.29e-12 3.43e-12 3.55e-12 3.78e-12 3.97e-12 4.15e-12 4.31e-12 4.46e-12 4.6e-12 4.73e-12 4.86e-12 4.98e-12 5.1e-12 
04 03 02  06 01 06 4.82e-12 4.67e-12 4.68e-12 4.92e-12 5.23e-12 5.56e-12 5.87e-12 6.15e-12 6.41e-12 6.64e-12 6.85e-12 7.2e-12 7.49e-12 7.73e-12 7.92e-12 8.07e-12 8.2e-12 8.29e-12 8.37e-12 8.42e-12 8.45e-12 
04 03 02  06 01 05 7.59e-12 7.66e-12 7.75e-12 7.88e-12 7.98e-12 8.08e-12 8.18e-12 8.29e-12 8.39e-12 8.5e-12 8.6e-12 8.8e-12 8.99e-12 9.16e-12 9.33e-12 9.49e-12 9.64e-12 9.78e-12 9.92e-12 1.01e-11 1.02e-11 
04 03 02  07 01 07 4.21e-12 4.48e-12 4.83e-12 5.49e-12 6.07e-12 6.56e-12 6.98e-12 7.34e-12 7.66e-12 7.94e-12 8.18e-12 8.59e-12 8.92e-12 9.17e-12 9.38e-12 9.55e-12 9.68e-12 9.79e-12 9.87e-12 9.93e-12 9.98e-12 
04 03 02  07 01 06 5.07e-12 5.22e-12 5.38e-12 5.63e-12 5.82e-12 5.98e-12 6.11e-12 6.23e-12 6.34e-12 6.45e-12 6.55e-12 6.73e-12 6.9e-12 7.04e-12 7.17e-12 7.28e-12 7.38e-12 7.46e-12 7.53e-12 7.59e-12 7.64e-12 
04 03 02  08 01 08 1.95e-12 2.1e-12 2.25e-12 2.63e-12 3.04e-12 3.46e-12 3.87e-12 4.25e-12 4.6e-12 4.92e-12 5.21e-12 5.71e-12 6.11e-12 6.44e-12 6.72e-12 6.95e-12 7.15e-12 7.32e-12 7.46e-12 7.58e-12 7.68e-12 
04 03 02  08 01 07 3.98e-12 4.35e-12 4.68e-12 5.33e-12 5.93e-12 6.46e-12 6.9e-12 7.28e-12 7.6e-12 7.87e-12 8.1e-12 8.46e-12 8.72e-12 8.92e-12 9.08e-12 9.19e-12 9.29e-12 9.36e-12 9.42e-12 9.46e-12 9.49e-12 
04 03 02  09 01 09 3.59e-13 8.36e-13 1.29e-12 2.06e-12 2.67e-12 3.19e-12 3.65e-12 4.06e-12 4.42e-12 4.75e-12 5.05e-12 5.56e-12 5.97e-12 6.31e-12 6.58e-12 6.82e-12 7.01e-12 7.18e-12 7.33e-12 7.45e-12 7.56e-12 
04 03 02  09 01 08 6.19e-14 2.01e-13 3.78e-13 7.96e-13 1.26e-12 1.75e-12 2.25e-12 2.72e-12 3.17e-12 3.58e-12 3.95e-12 4.55e-12 5e-12 5.35e-12 5.6e-12 5.8e-12 5.95e-12 6.08e-12 6.18e-12 6.27e-12 6.35e-12 
04 03 02  10 01 10 1.84e-14 1.22e-13 3.21e-13 8.82e-13 1.51e-12 2.13e-12 2.7e-12 3.23e-12 3.71e-12 4.15e-12 4.54e-12 5.23e-12 5.8e-12 6.28e-12 6.67e-12 7e-12 7.26e-12 7.48e-12 7.64e-12 7.77e-12 7.85e-12 
04 03 02  10 01 09 6.22e-16 7.75e-15 2.93e-14 1.22e-13 2.64e-13 4.35e-13 6.19e-13 8.06e-13 9.93e-13 1.18e-12 1.36e-12 1.7e-12 2.04e-12 2.36e-12 2.68e-12 3e-12 3.32e-12 3.64e-12 3.96e-12 4.29e-12 4.61e-12 
04 03 02  11 01 11 3.56e-16 8.52e-15 4.29e-14 2.27e-13 5.38e-13 9.2e-13 1.33e-12 1.73e-12 2.12e-12 2.49e-12 2.84e-12 3.47e-12 4.02e-12 4.51e-12 4.95e-12 5.36e-12 5.73e-12 6.08e-12 6.41e-12 6.72e-12 7.02e-12 
04 03 02  11 01 10 8.14e-18 3.05e-16 1.93e-15 1.31e-14 3.66e-14 7.15e-14 1.16e-13 1.67e-13 2.25e-13 2.86e-13 3.49e-13 4.81e-13 6.13e-13 7.43e-13 8.69e-13 9.9e-13 1.11e-12 1.22e-12 1.32e-12 1.42e-12 1.52e-12 
04 03 02  12 01 12 5.13e-18 4.53e-16 4.48e-15 4.83e-14 1.7e-13 3.75e-13 6.49e-13 9.72e-13 1.33e-12 1.7e-12 2.07e-12 2.82e-12 3.53e-12 4.19e-12 4.79e-12 5.35e-12 5.86e-12 6.33e-12 6.76e-12 7.16e-12 7.53e-12 
04 03 02  12 01 11 2.55e-19 4.19e-17 5.43e-16 7.2e-15 2.69e-14 6.07e-14 1.06e-13 1.61e-13 2.24e-13 2.92e-13 3.66e-13 5.27e-13 7.04e-13 8.94e-13 1.1e-12 1.31e-12 1.53e-12 1.77e-12 2.01e-12 2.26e-12 2.53e-12 
04 03 02  03 03 01 2.98e-11 3.02e-11 3.04e-11 3.08e-11 3.11e-11 3.14e-11 3.16e-11 3.18e-11 3.2e-11 3.22e-11 3.24e-11 3.27e-11 3.29e-11 3.31e-11 3.32e-11 3.33e-11 3.33e-11 3.33e-11 3.32e-11 3.31e-11 3.29e-11 
04 03 02  03 03 00 1.19e-11 1.29e-11 1.38e-11 1.52e-11 1.64e-11 1.75e-11 1.85e-11 1.94e-11 2.03e-11 2.11e-11 2.19e-11 2.32e-11 2.43e-11 2.51e-11 2.59e-11 2.65e-11 2.7e-11 2.73e-11 2.76e-11 2.78e-11 2.79e-11 
04 03 02  04 03 02 0 0 0 0 0 0 0 0 0 0 0 0 0 0 0 0 0 0 0 0 0 
04 03 02  04 03 01 6.18e-11 6.4e-11 6.47e-11 6.47e-11 6.43e-11 6.37e-11 6.32e-11 6.26e-11 6.21e-11 6.17e-11 6.13e-11 6.06e-11 6.01e-11 5.96e-11 5.92e-11 5.88e-11 5.84e-11 5.8e-11 5.75e-11 5.7e-11 5.65e-11 
04 03 02  05 03 03 7.65e-12 1.41e-11 1.93e-11 2.66e-11 3.13e-11 3.46e-11 3.7e-11 3.88e-11 4.02e-11 4.13e-11 4.22e-11 4.36e-11 4.47e-11 4.55e-11 4.61e-11 4.66e-11 4.7e-11 4.72e-11 4.73e-11 4.73e-11 4.73e-11 
04 03 02  05 03 02 1.44e-12 3.01e-12 4.54e-12 7.17e-12 9.4e-12 1.12e-11 1.29e-11 1.44e-11 1.57e-11 1.69e-11 1.81e-11 2e-11 2.15e-11 2.28e-11 2.4e-11 2.49e-11 2.56e-11 2.62e-11 2.69e-11 2.72e-11 2.76e-11 
04 03 02  06 03 04 1.61e-13 5.52e-13 1.04e-12 2.04e-12 3.02e-12 3.99e-12 4.94e-12 5.87e-12 6.78e-12 7.66e-12 8.51e-12 1.01e-11 1.15e-11 1.28e-11 1.4e-11 1.51e-11 1.61e-11 1.7e-11 1.78e-11 1.85e-11 1.92e-11 
04 03 02  06 03 03 2.22e-13 8.07e-13 1.57e-12 3.17e-12 4.69e-12 6.06e-12 7.3e-12 8.43e-12 9.47e-12 1.04e-11 1.11e-11 1.26e-11 1.37e-11 1.48e-11 1.56e-11 1.63e-11 1.7e-11 1.75e-11 1.79e-11 1.84e-11 1.88e-11 
04 03 02  07 03 05 2.87e-14 2.3e-13 6.5e-13 1.85e-12 3.11e-12 4.25e-12 5.22e-12 6.07e-12 6.82e-12 7.49e-12 8.11e-12 9.22e-12 1.02e-11 1.11e-11 1.19e-11 1.27e-11 1.33e-11 1.39e-11 1.44e-11 1.48e-11 1.51e-11 
04 03 02  07 03 04 1.23e-14 9.61e-14 2.69e-13 7.66e-13 1.32e-12 1.86e-12 2.37e-12 2.85e-12 3.31e-12 3.76e-12 4.19e-12 5.06e-12 5.91e-12 6.77e-12 7.62e-12 8.47e-12 9.32e-12 1.02e-11 1.1e-11 1.19e-11 1.27e-11 
04 03 02  08 03 06 6.38e-16 1.28e-14 5.79e-14 2.66e-13 5.79e-13 9.36e-13 1.31e-12 1.67e-12 2.03e-12 2.38e-12 2.72e-12 3.37e-12 4e-12 4.6e-12 5.21e-12 5.82e-12 6.44e-12 7.05e-12 7.67e-12 8.3e-12 8.94e-12 
04 03 02  08 03 05 1.45e-15 2.96e-14 1.35e-13 6.25e-13 1.36e-12 2.19e-12 3.03e-12 3.86e-12 4.65e-12 5.42e-12 6.15e-12 7.51e-12 8.77e-12 9.91e-12 1.1e-11 1.19e-11 1.29e-11 1.37e-11 1.44e-11 1.52e-11 1.58e-11 
04 03 02  09 03 07 4.26e-17 2.49e-15 1.93e-14 1.53e-13 4.37e-13 8.31e-13 1.29e-12 1.78e-12 2.28e-12 2.79e-12 3.3e-12 4.33e-12 5.35e-12 6.37e-12 7.41e-12 8.44e-12 9.48e-12 1.05e-11 1.16e-11 1.27e-11 1.38e-11 
04 03 02  09 03 06 2e-17 1.18e-15 9.15e-15 7.35e-14 2.13e-13 4.12e-13 6.49e-13 9.09e-13 1.18e-12 1.45e-12 1.71e-12 2.24e-12 2.73e-12 3.2e-12 3.65e-12 4.09e-12 4.5e-12 4.92e-12 5.32e-12 5.71e-12 6.09e-12 
04 03 02  10 03 08 6.17e-19 1.2e-16 1.69e-15 2.41e-14 9.3e-14 2.12e-13 3.72e-13 5.6e-13 7.65e-13 9.84e-13 1.21e-12 1.66e-12 2.1e-12 2.54e-12 2.97e-12 3.39e-12 3.81e-12 4.22e-12 4.63e-12 5.03e-12 5.44e-12 
04 03 02  10 03 07 6.2e-19 1.26e-16 1.83e-15 2.73e-14 1.08e-13 2.5e-13 4.43e-13 6.72e-13 9.28e-13 1.2e-12 1.48e-12 2.06e-12 2.65e-12 3.25e-12 3.86e-12 4.46e-12 5.08e-12 5.7e-12 6.32e-12 6.96e-12 7.61e-12 
04 03 01  01 01 01 9.1e-13 8.18e-13 7.64e-13 7.13e-13 7.02e-13 7.15e-13 7.43e-13 7.79e-13 8.2e-13 8.63e-13 9.06e-13 9.87e-13 1.06e-12 1.13e-12 1.18e-12 1.24e-12 1.28e-12 1.33e-12 1.37e-12 1.41e-12 1.45e-12 
04 03 01  01 01 00 2.62e-12 2.45e-12 2.35e-12 2.25e-12 2.21e-12 2.21e-12 2.22e-12 2.26e-12 2.3e-12 2.35e-12 2.4e-12 2.52e-12 2.63e-12 2.74e-12 2.85e-12 2.94e-12 3.04e-12 3.13e-12 3.21e-12 3.29e-12 3.36e-12 
04 03 01  02 01 02 4.21e-13 3.94e-13 3.8e-13 3.71e-13 3.75e-13 3.86e-13 4.01e-13 4.18e-13 4.38e-13 4.59e-13 4.82e-13 5.32e-13 5.89e-13 6.5e-13 7.17e-13 7.89e-13 8.64e-13 9.43e-13 1.03e-12 1.11e-12 1.2e-12 
04 03 01  02 01 01 4.47e-12 4.28e-12 4.2e-12 4.18e-12 4.26e-12 4.38e-12 4.54e-12 4.71e-12 4.88e-12 5.06e-12 5.24e-12 5.57e-12 5.89e-12 6.18e-12 6.46e-12 6.71e-12 6.96e-12 7.18e-12 7.39e-12 7.6e-12 7.79e-12 
04 03 01  03 01 03 3.58e-12 3.45e-12 3.38e-12 3.37e-12 3.43e-12 3.54e-12 3.67e-12 3.81e-12 3.95e-12 4.1e-12 4.24e-12 4.53e-12 4.8e-12 5.06e-12 5.3e-12 5.54e-12 5.76e-12 5.98e-12 6.18e-12 6.38e-12 6.57e-12 
04 03 01  03 01 02 1.82e-12 1.77e-12 1.78e-12 1.87e-12 1.99e-12 2.12e-12 2.25e-12 2.38e-12 2.51e-12 2.63e-12 2.74e-12 2.97e-12 3.18e-12 3.38e-12 3.58e-12 3.77e-12 3.96e-12 4.15e-12 4.34e-12 4.53e-12 4.72e-12 
04 03 01  04 01 04 5.54e-12 5.26e-12 5.14e-12 5.12e-12 5.22e-12 5.36e-12 5.51e-12 5.67e-12 5.82e-12 5.96e-12 6.1e-12 6.35e-12 6.57e-12 6.76e-12 6.93e-12 7.09e-12 7.23e-12 7.36e-12 7.47e-12 7.58e-12 7.67e-12 
04 03 01  04 01 03 2.35e-12 2.3e-12 2.31e-12 2.4e-12 2.54e-12 2.71e-12 2.89e-12 3.08e-12 3.26e-12 3.44e-12 3.62e-12 3.95e-12 4.27e-12 4.56e-12 4.84e-12 5.11e-12 5.37e-12 5.62e-12 5.87e-12 6.11e-12 6.34e-12 
04 03 01  05 01 05 4.06e-12 4.02e-12 4.11e-12 4.43e-12 4.77e-12 5.09e-12 5.36e-12 5.61e-12 5.82e-12 6.01e-12 6.18e-12 6.47e-12 6.71e-12 6.91e-12 7.08e-12 7.22e-12 7.34e-12 7.44e-12 7.52e-12 7.59e-12 7.64e-12 
04 03 01  05 01 04 4.51e-12 4.37e-12 4.34e-12 4.45e-12 4.64e-12 4.86e-12 5.09e-12 5.3e-12 5.51e-12 5.71e-12 5.89e-12 6.22e-12 6.5e-12 6.75e-12 6.97e-12 7.17e-12 7.34e-12 7.5e-12 7.64e-12 7.77e-12 7.89e-12 
04 03 01  06 01 06 2.82e-12 2.96e-12 3.17e-12 3.65e-12 4.11e-12 4.53e-12 4.9e-12 5.24e-12 5.54e-12 5.81e-12 6.05e-12 6.48e-12 6.84e-12 7.14e-12 7.41e-12 7.66e-12 7.88e-12 8.08e-12 8.27e-12 8.45e-12 8.63e-12 
04 03 01  06 01 05 3.74e-12 3.85e-12 3.98e-12 4.21e-12 4.41e-12 4.59e-12 4.74e-12 4.88e-12 5e-12 5.12e-12 5.23e-12 5.42e-12 5.59e-12 5.74e-12 5.87e-12 5.99e-12 6.1e-12 6.2e-12 6.28e-12 6.36e-12 6.44e-12 
04 03 01  07 01 07 3.02e-12 2.98e-12 3.02e-12 3.2e-12 3.47e-12 3.77e-12 4.07e-12 4.37e-12 4.65e-12 4.91e-12 5.14e-12 5.55e-12 5.88e-12 6.15e-12 6.37e-12 6.55e-12 6.71e-12 6.83e-12 6.94e-12 7.03e-12 7.1e-12 
04 03 01  07 01 06 7.55e-12 7.92e-12 8.28e-12 8.84e-12 9.24e-12 9.53e-12 9.75e-12 9.94e-12 1.01e-11 1.03e-11 1.04e-11 1.06e-11 1.08e-11 1.1e-11 1.11e-11 1.12e-11 1.13e-11 1.14e-11 1.14e-11 1.15e-11 1.15e-11 
04 03 01  08 01 08 3.52e-12 3.84e-12 4.13e-12 4.62e-12 4.99e-12 5.28e-12 5.52e-12 5.72e-12 5.91e-12 6.07e-12 6.21e-12 6.45e-12 6.65e-12 6.81e-12 6.93e-12 7.03e-12 7.1e-12 7.16e-12 7.19e-12 7.22e-12 7.22e-12 
04 03 01  08 01 07 3.63e-12 3.78e-12 3.88e-12 4.06e-12 4.26e-12 4.48e-12 4.69e-12 4.89e-12 5.07e-12 5.24e-12 5.39e-12 5.65e-12 5.86e-12 6.05e-12 6.2e-12 6.34e-12 6.46e-12 6.57e-12 6.67e-12 6.76e-12 6.85e-12 
04 03 01  09 01 09 3.01e-13 7.44e-13 1.22e-12 2.14e-12 2.99e-12 3.75e-12 4.42e-12 5.02e-12 5.55e-12 6.02e-12 6.43e-12 7.12e-12 7.64e-12 8.05e-12 8.38e-12 8.63e-12 8.83e-12 8.98e-12 9.1e-12 9.18e-12 9.24e-12 
04 03 01  09 01 08 7.32e-14 2.53e-13 5.02e-13 1.12e-12 1.81e-12 2.53e-12 3.22e-12 3.87e-12 4.47e-12 5.01e-12 5.48e-12 6.26e-12 6.84e-12 7.28e-12 7.61e-12 7.86e-12 8.06e-12 8.22e-12 8.35e-12 8.46e-12 8.55e-12 
04 03 01  10 01 10 1.49e-14 1e-13 2.68e-13 7.59e-13 1.33e-12 1.9e-12 2.44e-12 2.94e-12 3.39e-12 3.8e-12 4.17e-12 4.8e-12 5.34e-12 5.79e-12 6.18e-12 6.53e-12 6.84e-12 7.13e-12 7.39e-12 7.63e-12 7.86e-12 
04 03 01  10 01 09 2.72e-16 3.04e-15 1.07e-14 4.25e-14 9.39e-14 1.61e-13 2.4e-13 3.26e-13 4.18e-13 5.12e-13 6.09e-13 8.05e-13 1e-12 1.21e-12 1.41e-12 1.63e-12 1.85e-12 2.08e-12 2.32e-12 2.56e-12 2.82e-12 
04 03 01  11 01 11 3.56e-16 8.43e-15 4.23e-14 2.26e-13 5.49e-13 9.63e-13 1.42e-12 1.9e-12 2.37e-12 2.83e-12 3.27e-12 4.08e-12 4.82e-12 5.49e-12 6.11e-12 6.69e-12 7.24e-12 7.77e-12 8.28e-12 8.78e-12 9.27e-12 
04 03 01  11 01 10 2.16e-17 7.99e-16 4.95e-15 3.17e-14 8.29e-14 1.51e-13 2.29e-13 3.14e-13 4.01e-13 4.9e-13 5.8e-13 7.61e-13 9.41e-13 1.12e-12 1.3e-12 1.48e-12 1.66e-12 1.84e-12 2.02e-12 2.2e-12 2.39e-12 
04 03 01  12 01 12 5.11e-18 4.39e-16 4.18e-15 4.2e-14 1.4e-13 2.97e-13 5.01e-13 7.39e-13 1e-12 1.28e-12 1.56e-12 2.13e-12 2.68e-12 3.2e-12 3.68e-12 4.13e-12 4.53e-12 4.9e-12 5.23e-12 5.53e-12 5.79e-12 
04 03 01  12 01 11 1.96e-19 3.26e-17 4.31e-16 5.96e-15 2.32e-14 5.43e-14 9.82e-14 1.53e-13 2.18e-13 2.91e-13 3.71e-13 5.51e-13 7.56e-13 9.84e-13 1.23e-12 1.5e-12 1.79e-12 2.1e-12 2.42e-12 2.76e-12 3.12e-12 
04 03 01  03 03 01 1.13e-11 1.24e-11 1.33e-11 1.48e-11 1.6e-11 1.71e-11 1.82e-11 1.91e-11 2e-11 2.08e-11 2.16e-11 2.3e-11 2.41e-11 2.5e-11 2.58e-11 2.65e-11 2.7e-11 2.74e-11 2.78e-11 2.8e-11 2.82e-11 
04 03 01  03 03 00 3.06e-11 3.07e-11 3.09e-11 3.12e-11 3.14e-11 3.16e-11 3.18e-11 3.2e-11 3.22e-11 3.23e-11 3.25e-11 3.27e-11 3.29e-11 3.3e-11 3.31e-11 3.32e-11 3.32e-11 3.31e-11 3.3e-11 3.29e-11 3.27e-11 
04 03 01  04 03 02 6.18e-11 6.4e-11 6.47e-11 6.47e-11 6.43e-11 6.37e-11 6.32e-11 6.26e-11 6.21e-11 6.17e-11 6.13e-11 6.06e-11 6.01e-11 5.96e-11 5.92e-11 5.88e-11 5.84e-11 5.8e-11 5.75e-11 5.7e-11 5.65e-11 
04 03 01  04 03 01 0 0 0 0 0 0 0 0 0 0 0 0 0 0 0 0 0 0 0 0 0 
04 03 01  05 03 03 1.12e-12 2.44e-12 3.77e-12 6.16e-12 8.21e-12 1e-11 1.16e-11 1.31e-11 1.44e-11 1.57e-11 1.68e-11 1.88e-11 2.05e-11 2.2e-11 2.32e-11 2.42e-11 2.52e-11 2.59e-11 2.65e-11 2.71e-11 2.76e-11 
04 03 01  05 03 02 7.52e-12 1.39e-11 1.91e-11 2.66e-11 3.14e-11 3.48e-11 3.73e-11 3.91e-11 4.07e-11 4.19e-11 4.29e-11 4.44e-11 4.55e-11 4.63e-11 4.7e-11 4.76e-11 4.79e-11 4.82e-11 4.82e-11 4.83e-11 4.82e-11 
04 03 01  06 03 04 2.25e-13 7.89e-13 1.48e-12 2.83e-12 4.01e-12 5.03e-12 5.94e-12 6.75e-12 7.48e-12 8.14e-12 8.74e-12 9.83e-12 1.08e-11 1.16e-11 1.23e-11 1.29e-11 1.35e-11 1.4e-11 1.45e-11 1.5e-11 1.54e-11 
04 03 01  06 03 03 1.78e-13 6.19e-13 1.17e-12 2.35e-12 3.49e-12 4.61e-12 5.68e-12 6.72e-12 7.71e-12 8.66e-12 9.56e-12 1.12e-11 1.27e-11 1.41e-11 1.53e-11 1.63e-11 1.73e-11 1.82e-11 1.89e-11 1.96e-11 2.03e-11 
04 03 01  07 03 05 1.5e-14 1.15e-13 3.15e-13 8.56e-13 1.42e-12 1.93e-12 2.4e-12 2.83e-12 3.24e-12 3.65e-12 4.03e-12 4.81e-12 5.62e-12 6.42e-12 7.26e-12 8.12e-12 8.99e-12 9.89e-12 1.08e-11 1.17e-11 1.27e-11 
04 03 01  07 03 04 2.7e-14 2.19e-13 6.3e-13 1.83e-12 3.14e-12 4.34e-12 5.39e-12 6.3e-12 7.12e-12 7.86e-12 8.53e-12 9.74e-12 1.08e-11 1.18e-11 1.27e-11 1.35e-11 1.43e-11 1.49e-11 1.54e-11 1.6e-11 1.65e-11 
04 03 01  08 03 06 1.73e-15 3.51e-14 1.59e-13 7.22e-13 1.54e-12 2.43e-12 3.31e-12 4.15e-12 4.94e-12 5.68e-12 6.38e-12 7.67e-12 8.83e-12 9.87e-12 1.08e-11 1.16e-11 1.24e-11 1.31e-11 1.36e-11 1.41e-11 1.44e-11 
04 03 01  08 03 05 4.71e-16 9.69e-15 4.48e-14 2.16e-13 4.93e-13 8.32e-13 1.2e-12 1.58e-12 1.96e-12 2.34e-12 2.72e-12 3.45e-12 4.17e-12 4.86e-12 5.55e-12 6.25e-12 6.94e-12 7.62e-12 8.32e-12 9.03e-12 9.75e-12 
04 03 01  09 03 07 2.4e-17 1.42e-15 1.11e-14 8.99e-14 2.63e-13 5.07e-13 7.95e-13 1.1e-12 1.42e-12 1.72e-12 2.03e-12 2.61e-12 3.16e-12 3.68e-12 4.17e-12 4.64e-12 5.09e-12 5.53e-12 5.96e-12 6.38e-12 6.8e-12 
04 03 01  09 03 06 3.31e-17 1.96e-15 1.54e-14 1.25e-13 3.65e-13 7.1e-13 1.12e-12 1.57e-12 2.03e-12 2.51e-12 2.99e-12 3.95e-12 4.91e-12 5.86e-12 6.81e-12 7.77e-12 8.72e-12 9.69e-12 1.07e-11 1.16e-11 1.26e-11 
04 03 01  10 03 08 6.93e-19 1.39e-16 2.01e-15 2.96e-14 1.17e-13 2.7e-13 4.79e-13 7.26e-13 1e-12 1.29e-12 1.58e-12 2.19e-12 2.8e-12 3.41e-12 4e-12 4.59e-12 5.18e-12 5.77e-12 6.35e-12 6.93e-12 7.53e-12 
04 03 01  10 03 07 5.65e-19 1.11e-16 1.56e-15 2.22e-14 8.57e-14 1.97e-13 3.48e-13 5.31e-13 7.35e-13 9.52e-13 1.18e-12 1.65e-12 2.13e-12 2.58e-12 3.04e-12 3.47e-12 3.89e-12 4.29e-12 4.68e-12 5.04e-12 5.4e-12 
05 03 03  01 01 01 2.2e-12 2.13e-12 2.08e-12 2.02e-12 1.98e-12 1.95e-12 1.94e-12 1.94e-12 1.94e-12 1.95e-12 1.97e-12 2e-12 2.05e-12 2.09e-12 2.14e-12 2.18e-12 2.22e-12 2.26e-12 2.3e-12 2.34e-12 2.37e-12 
05 03 03  01 01 00 5.09e-13 4.63e-13 4.28e-13 3.84e-13 3.63e-13 3.53e-13 3.5e-13 3.52e-13 3.57e-13 3.65e-13 3.75e-13 4e-13 4.33e-13 4.72e-13 5.16e-13 5.67e-13 6.22e-13 6.82e-13 7.46e-13 8.15e-13 8.87e-13 
05 03 03  02 01 02 3.89e-12 3.81e-12 3.77e-12 3.75e-12 3.79e-12 3.85e-12 3.92e-12 4.01e-12 4.09e-12 4.18e-12 4.28e-12 4.46e-12 4.64e-12 4.82e-12 4.99e-12 5.15e-12 5.31e-12 5.47e-12 5.61e-12 5.76e-12 5.9e-12 
05 03 03  02 01 01 9.43e-13 8.93e-13 8.53e-13 8.06e-13 7.84e-13 7.75e-13 7.73e-13 7.75e-13 7.8e-13 7.87e-13 7.95e-13 8.12e-13 8.3e-13 8.48e-13 8.65e-13 8.81e-13 8.97e-13 9.13e-13 9.27e-13 9.41e-13 9.54e-13 
05 03 03  03 01 03 4.07e-12 4.05e-12 4.06e-12 4.18e-12 4.35e-12 4.54e-12 4.74e-12 4.93e-12 5.11e-12 5.28e-12 5.44e-12 5.73e-12 5.98e-12 6.2e-12 6.39e-12 6.56e-12 6.71e-12 6.85e-12 6.97e-12 7.08e-12 7.18e-12 
05 03 03  03 01 02 1.67e-12 1.66e-12 1.66e-12 1.67e-12 1.7e-12 1.74e-12 1.78e-12 1.83e-12 1.87e-12 1.92e-12 1.96e-12 2.04e-12 2.1e-12 2.15e-12 2.2e-12 2.24e-12 2.28e-12 2.31e-12 2.34e-12 2.37e-12 2.4e-12 
05 03 03  04 01 04 2.36e-12 2.35e-12 2.33e-12 2.33e-12 2.37e-12 2.43e-12 2.5e-12 2.58e-12 2.66e-12 2.74e-12 2.81e-12 2.97e-12 3.11e-12 3.26e-12 3.4e-12 3.54e-12 3.68e-12 3.82e-12 3.96e-12 4.11e-12 4.25e-12 
05 03 03  04 01 03 4.2e-12 4.1e-12 4.07e-12 4.12e-12 4.25e-12 4.42e-12 4.61e-12 4.81e-12 5.02e-12 5.23e-12 5.44e-12 5.84e-12 6.21e-12 6.56e-12 6.88e-12 7.19e-12 7.47e-12 7.75e-12 8e-12 8.25e-12 8.48e-12 
05 03 03  05 01 05 1.99e-12 2.05e-12 2.11e-12 2.26e-12 2.44e-12 2.62e-12 2.81e-12 2.99e-12 3.17e-12 3.35e-12 3.51e-12 3.81e-12 4.08e-12 4.32e-12 4.54e-12 4.75e-12 4.94e-12 5.12e-12 5.28e-12 5.45e-12 5.6e-12 
05 03 03  05 01 04 2.03e-12 2.11e-12 2.22e-12 2.47e-12 2.72e-12 2.95e-12 3.18e-12 3.39e-12 3.58e-12 3.76e-12 3.94e-12 4.25e-12 4.54e-12 4.81e-12 5.06e-12 5.29e-12 5.52e-12 5.74e-12 5.94e-12 6.15e-12 6.34e-12 
05 03 03  06 01 06 4.64e-12 4.66e-12 4.72e-12 4.92e-12 5.16e-12 5.42e-12 5.68e-12 5.93e-12 6.16e-12 6.39e-12 6.6e-12 6.97e-12 7.3e-12 7.58e-12 7.83e-12 8.04e-12 8.23e-12 8.4e-12 8.54e-12 8.67e-12 8.78e-12 
05 03 03  06 01 05 2.48e-12 2.51e-12 2.59e-12 2.8e-12 3.01e-12 3.2e-12 3.38e-12 3.54e-12 3.69e-12 3.82e-12 3.95e-12 4.17e-12 4.37e-12 4.54e-12 4.7e-12 4.84e-12 4.96e-12 5.08e-12 5.18e-12 5.28e-12 5.36e-12 
05 03 03  07 01 07 5.85e-12 5.83e-12 5.87e-12 6.11e-12 6.43e-12 6.78e-12 7.13e-12 7.45e-12 7.74e-12 8e-12 8.24e-12 8.63e-12 8.93e-12 9.17e-12 9.35e-12 9.49e-12 9.6e-12 9.68e-12 9.74e-12 9.77e-12 9.79e-12 
05 03 03  07 01 06 5.66e-12 5.81e-12 5.97e-12 6.29e-12 6.6e-12 6.88e-12 7.14e-12 7.38e-12 7.59e-12 7.8e-12 7.98e-12 8.31e-12 8.58e-12 8.83e-12 9.04e-12 9.23e-12 9.41e-12 9.58e-12 9.73e-12 9.87e-12 1e-11 
05 03 03  08 01 08 3.05e-12 3.41e-12 3.78e-12 4.48e-12 5.08e-12 5.6e-12 6.04e-12 6.42e-12 6.75e-12 7.03e-12 7.28e-12 7.68e-12 8e-12 8.25e-12 8.45e-12 8.61e-12 8.75e-12 8.87e-12 8.97e-12 9.06e-12 9.13e-12 
05 03 03  08 01 07 6.39e-12 6.39e-12 6.41e-12 6.49e-12 6.6e-12 6.72e-12 6.85e-12 6.97e-12 7.08e-12 7.19e-12 7.29e-12 7.46e-12 7.59e-12 7.7e-12 7.79e-12 7.86e-12 7.91e-12 7.95e-12 7.98e-12 7.99e-12 8e-12 
05 03 03  09 01 09 1.29e-12 1.6e-12 1.81e-12 2.16e-12 2.51e-12 2.87e-12 3.24e-12 3.6e-12 3.94e-12 4.26e-12 4.55e-12 5.07e-12 5.52e-12 5.9e-12 6.24e-12 6.54e-12 6.83e-12 7.1e-12 7.36e-12 7.61e-12 7.85e-12 
05 03 03  09 01 08 1.59e-12 2.85e-12 3.92e-12 5.63e-12 6.97e-12 8.05e-12 8.94e-12 9.68e-12 1.03e-11 1.08e-11 1.12e-11 1.18e-11 1.21e-11 1.24e-11 1.25e-11 1.25e-11 1.25e-11 1.24e-11 1.23e-11 1.23e-11 1.22e-11 
05 03 03  10 01 10 7.7e-14 2.83e-13 5.47e-13 1.07e-12 1.53e-12 1.92e-12 2.26e-12 2.55e-12 2.82e-12 3.06e-12 3.27e-12 3.65e-12 3.96e-12 4.22e-12 4.43e-12 4.61e-12 4.76e-12 4.87e-12 4.96e-12 5.03e-12 5.08e-12 
05 03 03  10 01 09 1.49e-14 8.59e-14 2.09e-13 5.28e-13 8.64e-13 1.18e-12 1.48e-12 1.74e-12 1.98e-12 2.19e-12 2.39e-12 2.74e-12 3.04e-12 3.31e-12 3.55e-12 3.78e-12 4e-12 4.2e-12 4.4e-12 4.59e-12 4.78e-12 
05 03 03  11 01 11 2.37e-15 3.08e-14 1.13e-13 4.28e-13 8.55e-13 1.31e-12 1.77e-12 2.2e-12 2.61e-12 2.98e-12 3.34e-12 3.98e-12 4.54e-12 5.03e-12 5.47e-12 5.86e-12 6.2e-12 6.51e-12 6.78e-12 7.01e-12 7.22e-12 
05 03 03  11 01 10 1.43e-16 3.19e-15 1.61e-14 8.96e-14 2.25e-13 4.02e-13 6e-13 8.06e-13 1.01e-12 1.21e-12 1.4e-12 1.76e-12 2.1e-12 2.4e-12 2.69e-12 2.97e-12 3.23e-12 3.48e-12 3.73e-12 3.98e-12 4.22e-12 
05 03 03  12 01 12 3.87e-17 1.86e-15 1.33e-14 9.94e-14 2.83e-13 5.41e-13 8.45e-13 1.17e-12 1.51e-12 1.85e-12 2.18e-12 2.82e-12 3.42e-12 3.99e-12 4.52e-12 5.02e-12 5.5e-12 5.97e-12 6.41e-12 6.84e-12 7.26e-12 
05 03 03  12 01 11 6.02e-19 5.79e-17 5.97e-16 6.88e-15 2.61e-14 6.23e-14 1.16e-13 1.87e-13 2.72e-13 3.69e-13 4.76e-13 7.11e-13 9.62e-13 1.22e-12 1.49e-12 1.75e-12 2.02e-12 2.28e-12 2.54e-12 2.79e-12 3.05e-12 
05 03 03  03 03 01 7.9e-12 7.54e-12 7.32e-12 7.18e-12 7.31e-12 7.58e-12 7.93e-12 8.31e-12 8.71e-12 9.12e-12 9.52e-12 1.03e-11 1.1e-11 1.17e-11 1.23e-11 1.29e-11 1.35e-11 1.39e-11 1.44e-11 1.48e-11 1.52e-11 
05 03 03  03 03 00 8.99e-12 9.15e-12 9.37e-12 9.84e-12 1.03e-11 1.07e-11 1.1e-11 1.13e-11 1.16e-11 1.19e-11 1.22e-11 1.27e-11 1.3e-11 1.34e-11 1.36e-11 1.38e-11 1.39e-11 1.4e-11 1.41e-11 1.41e-11 1.4e-11 
05 03 03  04 03 02 3.59e-11 3.69e-11 3.78e-11 3.9e-11 3.97e-11 4.02e-11 4.05e-11 4.07e-11 4.09e-11 4.1e-11 4.11e-11 4.13e-11 4.14e-11 4.15e-11 4.16e-11 4.16e-11 4.16e-11 4.15e-11 4.14e-11 4.12e-11 4.1e-11 
05 03 03  04 03 01 5.24e-12 6.39e-12 7.38e-12 9.02e-12 1.04e-11 1.16e-11 1.27e-11 1.38e-11 1.47e-11 1.56e-11 1.64e-11 1.78e-11 1.9e-11 2.01e-11 2.09e-11 2.16e-11 2.23e-11 2.28e-11 2.32e-11 2.36e-11 2.39e-11 
05 03 03  05 03 03 0 0 0 0 0 0 0 0 0 0 0 0 0 0 0 0 0 0 0 0 0 
05 03 03  05 03 02 3.93e-11 4.18e-11 4.28e-11 4.35e-11 4.37e-11 4.36e-11 4.36e-11 4.35e-11 4.34e-11 4.33e-11 4.32e-11 4.31e-11 4.3e-11 4.29e-11 4.29e-11 4.28e-11 4.28e-11 4.27e-11 4.26e-11 4.25e-11 4.24e-11 
05 03 03  06 03 04 6.24e-12 1.29e-11 1.87e-11 2.76e-11 3.36e-11 3.78e-11 4.1e-11 4.35e-11 4.54e-11 4.69e-11 4.82e-11 5.01e-11 5.15e-11 5.26e-11 5.32e-11 5.37e-11 5.4e-11 5.41e-11 5.42e-11 5.42e-11 5.4e-11 
05 03 03  06 03 03 6.58e-13 1.5e-12 2.39e-12 4.11e-12 5.68e-12 7.12e-12 8.42e-12 9.63e-12 1.08e-11 1.18e-11 1.27e-11 1.45e-11 1.6e-11 1.73e-11 1.84e-11 1.94e-11 2.02e-11 2.09e-11 2.15e-11 2.2e-11 2.25e-11 
05 03 03  07 03 05 5.62e-14 2.55e-13 5.56e-13 1.29e-12 2.08e-12 2.89e-12 3.72e-12 4.57e-12 5.42e-12 6.27e-12 7.12e-12 8.79e-12 1.04e-11 1.19e-11 1.32e-11 1.46e-11 1.57e-11 1.69e-11 1.79e-11 1.88e-11 1.96e-11 
05 03 03  07 03 04 1.07e-13 4.85e-13 1.04e-12 2.29e-12 3.45e-12 4.46e-12 5.32e-12 6.08e-12 6.76e-12 7.37e-12 7.94e-12 8.96e-12 9.86e-12 1.07e-11 1.14e-11 1.21e-11 1.26e-11 1.31e-11 1.35e-11 1.39e-11 1.43e-11 
05 03 03  08 03 06 7.22e-15 8.27e-14 2.83e-13 9.95e-13 1.91e-12 2.86e-12 3.78e-12 4.66e-12 5.48e-12 6.25e-12 6.97e-12 8.28e-12 9.42e-12 1.05e-11 1.15e-11 1.23e-11 1.32e-11 1.39e-11 1.47e-11 1.53e-11 1.6e-11 
05 03 03  08 03 05 3.34e-15 3.7e-14 1.23e-13 4.19e-13 8e-13 1.22e-12 1.65e-12 2.08e-12 2.51e-12 2.95e-12 3.38e-12 4.23e-12 5.09e-12 5.94e-12 6.8e-12 7.66e-12 8.54e-12 9.44e-12 1.04e-11 1.13e-11 1.22e-11 
05 03 03  09 03 07 1.68e-16 5.29e-15 2.96e-14 1.64e-13 3.9e-13 6.6e-13 9.48e-13 1.24e-12 1.53e-12 1.82e-12 2.1e-12 2.65e-12 3.18e-12 3.71e-12 4.22e-12 4.72e-12 5.23e-12 5.75e-12 6.26e-12 6.76e-12 7.27e-12 
05 03 03  09 03 06 3.44e-16 1.1e-14 6.26e-14 3.56e-13 8.53e-13 1.45e-12 2.1e-12 2.74e-12 3.38e-12 4.02e-12 4.63e-12 5.82e-12 6.94e-12 7.99e-12 8.98e-12 9.91e-12 1.08e-11 1.16e-11 1.23e-11 1.31e-11 1.38e-11 
05 03 03  10 03 08 7.82e-18 8.54e-16 8.93e-15 9.3e-14 3e-13 6.09e-13 9.79e-13 1.38e-12 1.8e-12 2.21e-12 2.62e-12 3.42e-12 4.17e-12 4.87e-12 5.52e-12 6.14e-12 6.73e-12 7.26e-12 7.78e-12 8.26e-12 8.72e-12 
05 03 03  10 03 07 2.91e-18 3.24e-16 3.47e-15 3.78e-14 1.28e-13 2.72e-13 4.55e-13 6.64e-13 8.92e-13 1.12e-12 1.36e-12 1.84e-12 2.3e-12 2.74e-12 3.16e-12 3.56e-12 3.95e-12 4.31e-12 4.65e-12 4.98e-12 5.3e-12 
05 03 02  01 01 01 1.13e-12 1.11e-12 1.1e-12 1.08e-12 1.08e-12 1.1e-12 1.12e-12 1.15e-12 1.18e-12 1.22e-12 1.25e-12 1.32e-12 1.4e-12 1.47e-12 1.55e-12 1.62e-12 1.7e-12 1.77e-12 1.85e-12 1.93e-12 2.01e-12 
05 03 02  01 01 00 1.97e-12 1.92e-12 1.88e-12 1.84e-12 1.84e-12 1.85e-12 1.88e-12 1.91e-12 1.96e-12 2e-12 2.05e-12 2.15e-12 2.25e-12 2.33e-12 2.42e-12 2.5e-12 2.57e-12 2.64e-12 2.71e-12 2.77e-12 2.84e-12 
05 03 02  02 01 02 4.91e-13 4.64e-13 4.45e-13 4.22e-13 4.11e-13 4.06e-13 4.05e-13 4.05e-13 4.06e-13 4.09e-13 4.13e-13 4.22e-13 4.34e-13 4.48e-13 4.63e-13 4.78e-13 4.94e-13 5.1e-13 5.26e-13 5.43e-13 5.59e-13 
05 03 02  02 01 01 2.58e-12 2.47e-12 2.4e-12 2.36e-12 2.38e-12 2.42e-12 2.48e-12 2.54e-12 2.6e-12 2.66e-12 2.73e-12 2.86e-12 2.99e-12 3.12e-12 3.24e-12 3.37e-12 3.49e-12 3.6e-12 3.72e-12 3.83e-12 3.94e-12 
05 03 02  03 01 03 1.58e-12 1.55e-12 1.54e-12 1.55e-12 1.57e-12 1.6e-12 1.63e-12 1.66e-12 1.68e-12 1.71e-12 1.73e-12 1.78e-12 1.82e-12 1.86e-12 1.9e-12 1.95e-12 1.98e-12 2.02e-12 2.06e-12 2.1e-12 2.14e-12 
05 03 02  03 01 02 3.66e-12 3.53e-12 3.46e-12 3.44e-12 3.5e-12 3.59e-12 3.71e-12 3.83e-12 3.97e-12 4.1e-12 4.23e-12 4.49e-12 4.74e-12 4.99e-12 5.22e-12 5.46e-12 5.68e-12 5.9e-12 6.12e-12 6.33e-12 6.55e-12 
05 03 02  04 01 04 5.46e-12 5.48e-12 5.55e-12 5.79e-12 6.09e-12 6.39e-12 6.69e-12 6.98e-12 7.26e-12 7.52e-12 7.76e-12 8.2e-12 8.58e-12 8.93e-12 9.23e-12 9.51e-12 9.77e-12 1e-11 1.02e-11 1.04e-11 1.06e-11 
05 03 02  04 01 03 1.79e-12 1.73e-12 1.68e-12 1.64e-12 1.63e-12 1.65e-12 1.68e-12 1.73e-12 1.77e-12 1.82e-12 1.86e-12 1.96e-12 2.05e-12 2.13e-12 2.22e-12 2.3e-12 2.38e-12 2.46e-12 2.54e-12 2.62e-12 2.69e-12 
05 03 02  05 01 05 6.72e-12 6.76e-12 6.81e-12 7e-12 7.26e-12 7.55e-12 7.84e-12 8.12e-12 8.39e-12 8.64e-12 8.88e-12 9.29e-12 9.63e-12 9.93e-12 1.02e-11 1.04e-11 1.06e-11 1.07e-11 1.08e-11 1.09e-11 1.1e-11 
05 03 02  05 01 04 3.31e-12 3.26e-12 3.24e-12 3.27e-12 3.35e-12 3.45e-12 3.56e-12 3.68e-12 3.8e-12 3.91e-12 4.03e-12 4.25e-12 4.46e-12 4.67e-12 4.86e-12 5.04e-12 5.21e-12 5.38e-12 5.55e-12 5.71e-12 5.86e-12 
05 03 02  06 01 06 2.93e-12 2.93e-12 2.96e-12 3.13e-12 3.4e-12 3.71e-12 4.04e-12 4.36e-12 4.66e-12 4.94e-12 5.2e-12 5.66e-12 6.04e-12 6.36e-12 6.63e-12 6.86e-12 7.06e-12 7.24e-12 7.39e-12 7.53e-12 7.65e-12 
05 03 02  06 01 05 2.98e-12 3.09e-12 3.24e-12 3.58e-12 3.92e-12 4.23e-12 4.51e-12 4.76e-12 4.99e-12 5.2e-12 5.4e-12 5.75e-12 6.07e-12 6.35e-12 6.61e-12 6.83e-12 7.04e-12 7.22e-12 7.38e-12 7.52e-12 7.65e-12 
05 03 02  07 01 07 2.63e-12 2.59e-12 2.61e-12 2.77e-12 3.01e-12 3.28e-12 3.57e-12 3.85e-12 4.11e-12 4.36e-12 4.58e-12 4.98e-12 5.32e-12 5.61e-12 5.86e-12 6.08e-12 6.28e-12 6.47e-12 6.65e-12 6.81e-12 6.97e-12 
05 03 02  07 01 06 3.44e-12 3.53e-12 3.65e-12 3.91e-12 4.2e-12 4.49e-12 4.77e-12 5.03e-12 5.27e-12 5.49e-12 5.69e-12 6.04e-12 6.33e-12 6.58e-12 6.79e-12 6.97e-12 7.13e-12 7.27e-12 7.39e-12 7.5e-12 7.6e-12 
05 03 02  08 01 08 3.56e-12 3.74e-12 3.87e-12 4.1e-12 4.32e-12 4.52e-12 4.72e-12 4.9e-12 5.08e-12 5.23e-12 5.38e-12 5.62e-12 5.81e-12 5.96e-12 6.07e-12 6.15e-12 6.21e-12 6.24e-12 6.26e-12 6.26e-12 6.25e-12 
05 03 02  08 01 07 6.9e-12 7.48e-12 7.96e-12 8.65e-12 9.11e-12 9.44e-12 9.7e-12 9.9e-12 1.01e-11 1.02e-11 1.03e-11 1.05e-11 1.07e-11 1.08e-11 1.09e-11 1.1e-11 1.11e-11 1.11e-11 1.12e-11 1.13e-11 1.14e-11 
05 03 02  09 01 09 1.67e-12 2.32e-12 2.86e-12 3.75e-12 4.49e-12 5.12e-12 5.67e-12 6.14e-12 6.55e-12 6.91e-12 7.22e-12 7.71e-12 8.07e-12 8.32e-12 8.5e-12 8.62e-12 8.7e-12 8.74e-12 8.74e-12 8.73e-12 8.69e-12 
05 03 02  09 01 08 1.2e-12 2.13e-12 2.9e-12 4.12e-12 5.08e-12 5.89e-12 6.58e-12 7.17e-12 7.68e-12 8.11e-12 8.46e-12 8.99e-12 9.33e-12 9.53e-12 9.64e-12 9.69e-12 9.69e-12 9.66e-12 9.61e-12 9.55e-12 9.48e-12 
05 03 02  10 01 10 5.9e-14 2.26e-13 4.6e-13 1e-12 1.56e-12 2.1e-12 2.61e-12 3.08e-12 3.51e-12 3.9e-12 4.27e-12 4.91e-12 5.46e-12 5.95e-12 6.4e-12 6.8e-12 7.18e-12 7.54e-12 7.87e-12 8.2e-12 8.51e-12 
05 03 02  10 01 09 2.02e-14 1.21e-13 3.06e-13 8.15e-13 1.37e-12 1.91e-12 2.39e-12 2.82e-12 3.19e-12 3.52e-12 3.82e-12 4.3e-12 4.7e-12 5.02e-12 5.29e-12 5.53e-12 5.73e-12 5.91e-12 6.06e-12 6.2e-12 6.32e-12 
05 03 02  11 01 11 1.71e-15 2.25e-14 8.34e-14 3.2e-13 6.49e-13 1.01e-12 1.37e-12 1.73e-12 2.07e-12 2.38e-12 2.68e-12 3.23e-12 3.72e-12 4.16e-12 4.58e-12 4.96e-12 5.32e-12 5.67e-12 6e-12 6.32e-12 6.63e-12 
05 03 02  11 01 10 7.03e-17 1.55e-15 7.8e-15 4.38e-14 1.13e-13 2.08e-13 3.21e-13 4.44e-13 5.72e-13 7e-13 8.26e-13 1.07e-12 1.3e-12 1.51e-12 1.71e-12 1.91e-12 2.09e-12 2.26e-12 2.43e-12 2.6e-12 2.76e-12 
05 03 02  12 01 12 4.15e-17 2e-15 1.42e-14 1.06e-13 3.01e-13 5.78e-13 9.06e-13 1.26e-12 1.64e-12 2.01e-12 2.38e-12 3.1e-12 3.76e-12 4.38e-12 4.94e-12 5.45e-12 5.92e-12 6.34e-12 6.73e-12 7.08e-12 7.4e-12 
05 03 02  12 01 11 1.28e-18 1.21e-16 1.21e-15 1.29e-14 4.52e-14 1e-13 1.76e-13 2.7e-13 3.77e-13 4.96e-13 6.24e-13 8.96e-13 1.18e-12 1.48e-12 1.77e-12 2.07e-12 2.37e-12 2.66e-12 2.96e-12 3.25e-12 3.54e-12 
05 03 02  03 03 01 9.39e-12 9.5e-12 9.68e-12 1e-11 1.04e-11 1.07e-11 1.09e-11 1.12e-11 1.14e-11 1.17e-11 1.19e-11 1.23e-11 1.26e-11 1.29e-11 1.32e-11 1.34e-11 1.35e-11 1.36e-11 1.37e-11 1.37e-11 1.37e-11 
05 03 02  03 03 00 7.56e-12 7.21e-12 7e-12 6.87e-12 6.99e-12 7.25e-12 7.6e-12 7.98e-12 8.38e-12 8.78e-12 9.18e-12 9.97e-12 1.07e-11 1.14e-11 1.21e-11 1.27e-11 1.32e-11 1.38e-11 1.42e-11 1.47e-11 1.51e-11 
05 03 02  04 03 02 6.74e-12 7.9e-12 8.89e-12 1.05e-11 1.19e-11 1.3e-11 1.41e-11 1.51e-11 1.6e-11 1.68e-11 1.76e-11 1.89e-11 1.99e-11 2.08e-11 2.16e-11 2.22e-11 2.27e-11 2.31e-11 2.35e-11 2.37e-11 2.39e-11 
05 03 02  04 03 01 3.53e-11 3.65e-11 3.75e-11 3.89e-11 3.98e-11 4.04e-11 4.08e-11 4.11e-11 4.14e-11 4.16e-11 4.18e-11 4.2e-11 4.22e-11 4.23e-11 4.24e-11 4.25e-11 4.24e-11 4.24e-11 4.22e-11 4.21e-11 4.18e-11 
05 03 02  05 03 03 3.93e-11 4.18e-11 4.28e-11 4.35e-11 4.37e-11 4.36e-11 4.36e-11 4.35e-11 4.34e-11 4.33e-11 4.32e-11 4.31e-11 4.3e-11 4.29e-11 4.29e-11 4.28e-11 4.28e-11 4.27e-11 4.26e-11 4.25e-11 4.24e-11 
05 03 02  05 03 02 0 0 0 0 0 0 0 0 0 0 0 0 0 0 0 0 0 0 0 0 0 
05 03 02  06 03 04 6.48e-13 1.48e-12 2.35e-12 4.03e-12 5.54e-12 6.91e-12 8.16e-12 9.28e-12 1.04e-11 1.13e-11 1.22e-11 1.38e-11 1.52e-11 1.64e-11 1.74e-11 1.83e-11 1.9e-11 1.97e-11 2.03e-11 2.07e-11 2.12e-11 
05 03 02  06 03 03 6.23e-12 1.29e-11 1.87e-11 2.74e-11 3.32e-11 3.75e-11 4.05e-11 4.29e-11 4.47e-11 4.63e-11 4.75e-11 4.94e-11 5.08e-11 5.18e-11 5.26e-11 5.32e-11 5.37e-11 5.4e-11 5.43e-11 5.44e-11 5.44e-11 
05 03 02  07 03 05 1.23e-13 5.5e-13 1.17e-12 2.52e-12 3.72e-12 4.73e-12 5.56e-12 6.27e-12 6.89e-12 7.45e-12 7.95e-12 8.84e-12 9.63e-12 1.04e-11 1.09e-11 1.15e-11 1.2e-11 1.24e-11 1.28e-11 1.31e-11 1.34e-11 
05 03 02  07 03 04 7.04e-14 3.15e-13 6.73e-13 1.49e-12 2.31e-12 3.12e-12 3.92e-12 4.72e-12 5.53e-12 6.33e-12 7.12e-12 8.68e-12 1.01e-11 1.15e-11 1.28e-11 1.39e-11 1.51e-11 1.6e-11 1.68e-11 1.77e-11 1.84e-11 
05 03 02  08 03 06 3.81e-15 4.26e-14 1.43e-13 4.97e-13 9.55e-13 1.45e-12 1.95e-12 2.44e-12 2.91e-12 3.37e-12 3.83e-12 4.7e-12 5.56e-12 6.43e-12 7.3e-12 8.19e-12 9.1e-12 1e-11 1.1e-11 1.2e-11 1.3e-11 
05 03 02  08 03 05 7.01e-15 8.06e-14 2.78e-13 9.87e-13 1.91e-12 2.88e-12 3.83e-12 4.72e-12 5.56e-12 6.35e-12 7.08e-12 8.47e-12 9.61e-12 1.06e-11 1.17e-11 1.25e-11 1.34e-11 1.42e-11 1.49e-11 1.56e-11 1.62e-11 
05 03 02  09 03 07 3.81e-16 1.23e-14 7.02e-14 4.03e-13 9.7e-13 1.66e-12 2.39e-12 3.13e-12 3.86e-12 4.59e-12 5.29e-12 6.66e-12 7.97e-12 9.24e-12 1.04e-11 1.16e-11 1.27e-11 1.36e-11 1.47e-11 1.56e-11 1.66e-11 
05 03 02  09 03 06 1.13e-16 3.57e-15 2.01e-14 1.14e-13 2.78e-13 4.82e-13 7.08e-13 9.43e-13 1.19e-12 1.43e-12 1.68e-12 2.17e-12 2.66e-12 3.16e-12 3.67e-12 4.17e-12 4.69e-12 5.22e-12 5.75e-12 6.3e-12 6.84e-12 
05 03 02  10 03 08 4.77e-18 5.21e-16 5.5e-15 5.86e-14 1.95e-13 4.09e-13 6.77e-13 9.8e-13 1.3e-12 1.62e-12 1.95e-12 2.58e-12 3.17e-12 3.73e-12 4.24e-12 4.72e-12 5.17e-12 5.59e-12 5.98e-12 6.35e-12 6.71e-12 
05 03 02  10 03 07 4.75e-18 5.28e-16 5.62e-15 6.04e-14 2.01e-13 4.21e-13 6.99e-13 1.01e-12 1.35e-12 1.71e-12 2.09e-12 2.85e-12 3.63e-12 4.42e-12 5.22e-12 6.03e-12 6.84e-12 7.65e-12 8.48e-12 9.3e-12 1.01e-11 
06 03 04  01 01 01 1.45e-12 1.45e-12 1.48e-12 1.58e-12 1.68e-12 1.77e-12 1.85e-12 1.92e-12 1.98e-12 2.02e-12 2.06e-12 2.12e-12 2.16e-12 2.19e-12 2.21e-12 2.23e-12 2.25e-12 2.27e-12 2.28e-12 2.3e-12 2.33e-12 
06 03 04  01 01 00 1.32e-12 1.28e-12 1.26e-12 1.24e-12 1.24e-12 1.23e-12 1.23e-12 1.22e-12 1.22e-12 1.21e-12 1.2e-12 1.19e-12 1.18e-12 1.17e-12 1.16e-12 1.15e-12 1.15e-12 1.15e-12 1.16e-12 1.16e-12 1.17e-12 
06 03 04  02 01 02 3.57e-12 3.59e-12 3.68e-12 3.92e-12 4.17e-12 4.4e-12 4.61e-12 4.8e-12 4.97e-12 5.11e-12 5.24e-12 5.45e-12 5.6e-12 5.71e-12 5.79e-12 5.85e-12 5.89e-12 5.91e-12 5.93e-12 5.94e-12 5.94e-12 
06 03 04  02 01 01 9.7e-13 9.44e-13 9.24e-13 9.1e-13 9.09e-13 9.12e-13 9.17e-13 9.21e-13 9.25e-13 9.27e-13 9.28e-13 9.28e-13 9.26e-13 9.24e-13 9.22e-13 9.23e-13 9.25e-13 9.29e-13 9.36e-13 9.44e-13 9.55e-13 
06 03 04  03 01 03 4.32e-12 4.36e-12 4.44e-12 4.69e-12 4.98e-12 5.27e-12 5.54e-12 5.79e-12 6.02e-12 6.22e-12 6.4e-12 6.7e-12 6.93e-12 7.12e-12 7.28e-12 7.41e-12 7.54e-12 7.66e-12 7.78e-12 7.89e-12 8e-12 
06 03 04  03 01 02 1.39e-12 1.38e-12 1.37e-12 1.37e-12 1.38e-12 1.39e-12 1.4e-12 1.41e-12 1.42e-12 1.43e-12 1.44e-12 1.44e-12 1.44e-12 1.43e-12 1.42e-12 1.41e-12 1.41e-12 1.4e-12 1.4e-12 1.4e-12 1.4e-12 
06 03 04  04 01 04 3.8e-12 3.84e-12 3.88e-12 4.04e-12 4.28e-12 4.53e-12 4.79e-12 5.03e-12 5.26e-12 5.46e-12 5.64e-12 5.93e-12 6.16e-12 6.34e-12 6.49e-12 6.6e-12 6.7e-12 6.79e-12 6.86e-12 6.93e-12 6.99e-12 
06 03 04  04 01 03 2.87e-12 2.87e-12 2.86e-12 2.88e-12 2.92e-12 2.96e-12 3e-12 3.04e-12 3.07e-12 3.11e-12 3.14e-12 3.2e-12 3.26e-12 3.3e-12 3.35e-12 3.4e-12 3.44e-12 3.49e-12 3.53e-12 3.57e-12 3.62e-12 
06 03 04  05 01 05 2.29e-12 2.3e-12 2.31e-12 2.36e-12 2.44e-12 2.54e-12 2.63e-12 2.73e-12 2.82e-12 2.9e-12 2.98e-12 3.09e-12 3.17e-12 3.22e-12 3.26e-12 3.28e-12 3.29e-12 3.3e-12 3.31e-12 3.31e-12 3.31e-12 
06 03 04  05 01 04 5.25e-12 5.18e-12 5.18e-12 5.3e-12 5.46e-12 5.64e-12 5.82e-12 6e-12 6.17e-12 6.34e-12 6.5e-12 6.81e-12 7.09e-12 7.36e-12 7.62e-12 7.87e-12 8.1e-12 8.33e-12 8.55e-12 8.76e-12 8.96e-12 
06 03 04  06 01 06 2.93e-12 2.94e-12 3.01e-12 3.19e-12 3.39e-12 3.59e-12 3.79e-12 3.97e-12 4.15e-12 4.32e-12 4.48e-12 4.76e-12 5.02e-12 5.25e-12 5.46e-12 5.65e-12 5.82e-12 5.98e-12 6.13e-12 6.27e-12 6.4e-12 
06 03 04  06 01 05 2.54e-12 2.62e-12 2.72e-12 2.94e-12 3.16e-12 3.38e-12 3.58e-12 3.77e-12 3.95e-12 4.11e-12 4.27e-12 4.55e-12 4.82e-12 5.08e-12 5.33e-12 5.58e-12 5.83e-12 6.08e-12 6.33e-12 6.58e-12 6.84e-12 
06 03 04  07 01 07 6.74e-12 6.85e-12 6.98e-12 7.32e-12 7.68e-12 8.04e-12 8.37e-12 8.68e-12 8.96e-12 9.21e-12 9.44e-12 9.84e-12 1.02e-11 1.05e-11 1.07e-11 1.09e-11 1.11e-11 1.13e-11 1.15e-11 1.16e-11 1.18e-11 
06 03 04  07 01 06 2.57e-12 2.69e-12 2.82e-12 3.09e-12 3.34e-12 3.58e-12 3.8e-12 4.02e-12 4.21e-12 4.39e-12 4.55e-12 4.83e-12 5.06e-12 5.26e-12 5.42e-12 5.56e-12 5.68e-12 5.79e-12 5.88e-12 5.96e-12 6.04e-12 
06 03 04  08 01 08 7.26e-12 7.37e-12 7.46e-12 7.78e-12 8.18e-12 8.6e-12 9e-12 9.37e-12 9.7e-12 9.99e-12 1.02e-11 1.07e-11 1.1e-11 1.12e-11 1.14e-11 1.15e-11 1.16e-11 1.16e-11 1.17e-11 1.17e-11 1.17e-11 
06 03 04  08 01 07 4.28e-12 4.53e-12 4.82e-12 5.35e-12 5.81e-12 6.2e-12 6.54e-12 6.84e-12 7.1e-12 7.33e-12 7.54e-12 7.89e-12 8.17e-12 8.4e-12 8.59e-12 8.76e-12 8.9e-12 9.02e-12 9.13e-12 9.22e-12 9.3e-12 
06 03 04  09 01 09 3.26e-12 3.62e-12 3.97e-12 4.66e-12 5.33e-12 5.94e-12 6.51e-12 7.01e-12 7.46e-12 7.85e-12 8.18e-12 8.71e-12 9.07e-12 9.32e-12 9.47e-12 9.56e-12 9.6e-12 9.6e-12 9.57e-12 9.51e-12 9.43e-12 
06 03 04  09 01 08 9.43e-12 9.63e-12 9.71e-12 9.89e-12 1.01e-11 1.04e-11 1.06e-11 1.09e-11 1.11e-11 1.13e-11 1.14e-11 1.16e-11 1.17e-11 1.17e-11 1.17e-11 1.16e-11 1.14e-11 1.13e-11 1.11e-11 1.09e-11 1.08e-11 
06 03 04  10 01 10 3.14e-13 5.85e-13 8.09e-13 1.16e-12 1.45e-12 1.72e-12 1.98e-12 2.22e-12 2.45e-12 2.67e-12 2.87e-12 3.25e-12 3.59e-12 3.89e-12 4.16e-12 4.4e-12 4.62e-12 4.82e-12 5e-12 5.17e-12 5.32e-12 
06 03 04  10 01 09 4.45e-13 1.27e-12 2.16e-12 3.7e-12 4.84e-12 5.68e-12 6.31e-12 6.79e-12 7.17e-12 7.47e-12 7.72e-12 8.09e-12 8.36e-12 8.56e-12 8.72e-12 8.84e-12 8.93e-12 8.99e-12 9.04e-12 9.06e-12 9.07e-12 
06 03 04  11 01 11 1.45e-14 9.3e-14 2.38e-13 6.13e-13 9.95e-13 1.35e-12 1.66e-12 1.95e-12 2.21e-12 2.44e-12 2.66e-12 3.05e-12 3.38e-12 3.67e-12 3.93e-12 4.15e-12 4.34e-12 4.5e-12 4.65e-12 4.77e-12 4.88e-12 
06 03 04  11 01 10 3.27e-15 3.4e-14 1.12e-13 3.82e-13 7.22e-13 1.07e-12 1.41e-12 1.72e-12 2e-12 2.25e-12 2.48e-12 2.88e-12 3.22e-12 3.5e-12 3.75e-12 3.98e-12 4.18e-12 4.36e-12 4.52e-12 4.68e-12 4.82e-12 
06 03 04  12 01 12 3.3e-16 7.9e-15 3.95e-14 2.05e-13 4.83e-13 8.21e-13 1.18e-12 1.55e-12 1.91e-12 2.26e-12 2.59e-12 3.22e-12 3.8e-12 4.34e-12 4.84e-12 5.32e-12 5.78e-12 6.23e-12 6.65e-12 7.07e-12 7.47e-12 
06 03 04  12 01 11 2.54e-17 1.23e-15 8.89e-15 6.82e-14 1.97e-13 3.83e-13 6.05e-13 8.46e-13 1.1e-12 1.35e-12 1.6e-12 2.09e-12 2.56e-12 3.02e-12 3.46e-12 3.89e-12 4.32e-12 4.75e-12 5.17e-12 5.59e-12 6.02e-12 
06 03 04  03 03 01 8.89e-12 8.99e-12 9.19e-12 9.62e-12 9.97e-12 1.03e-11 1.05e-11 1.07e-11 1.1e-11 1.12e-11 1.13e-11 1.17e-11 1.19e-11 1.22e-11 1.24e-11 1.25e-11 1.26e-11 1.27e-11 1.27e-11 1.27e-11 1.27e-11 
06 03 04  03 03 00 4.13e-12 4.05e-12 4.07e-12 4.25e-12 4.47e-12 4.72e-12 4.97e-12 5.22e-12 5.45e-12 5.68e-12 5.9e-12 6.31e-12 6.7e-12 7.09e-12 7.46e-12 7.84e-12 8.21e-12 8.6e-12 8.99e-12 9.38e-12 9.78e-12 
06 03 04  04 03 02 5.21e-12 4.96e-12 4.91e-12 5.09e-12 5.47e-12 5.96e-12 6.49e-12 7.04e-12 7.59e-12 8.13e-12 8.65e-12 9.62e-12 1.05e-11 1.13e-11 1.2e-11 1.27e-11 1.33e-11 1.38e-11 1.43e-11 1.47e-11 1.51e-11 
06 03 04  04 03 01 7.29e-12 7.08e-12 7e-12 7.05e-12 7.25e-12 7.51e-12 7.8e-12 8.09e-12 8.37e-12 8.64e-12 8.89e-12 9.37e-12 9.79e-12 1.02e-11 1.05e-11 1.08e-11 1.11e-11 1.14e-11 1.16e-11 1.19e-11 1.21e-11 
06 03 04  05 03 03 4.3e-11 4.41e-11 4.52e-11 4.69e-11 4.8e-11 4.87e-11 4.92e-11 4.96e-11 4.99e-11 5.01e-11 5.03e-11 5.05e-11 5.06e-11 5.07e-11 5.06e-11 5.05e-11 5.03e-11 5e-11 4.97e-11 4.94e-11 4.9e-11 
06 03 04  05 03 02 4.46e-12 5.06e-12 5.68e-12 6.86e-12 7.92e-12 8.89e-12 9.79e-12 1.06e-11 1.14e-11 1.21e-11 1.27e-11 1.39e-11 1.49e-11 1.58e-11 1.65e-11 1.72e-11 1.77e-11 1.82e-11 1.86e-11 1.89e-11 1.92e-11 
06 03 04  06 03 04 0 0 0 0 0 0 0 0 0 0 0 0 0 0 0 0 0 0 0 0 0 
06 03 04  06 03 03 2.83e-11 3.05e-11 3.17e-11 3.3e-11 3.38e-11 3.43e-11 3.46e-11 3.49e-11 3.51e-11 3.52e-11 3.53e-11 3.55e-11 3.55e-11 3.55e-11 3.54e-11 3.53e-11 3.52e-11 3.51e-11 3.5e-11 3.48e-11 3.46e-11 
06 03 04  07 03 05 4.74e-12 1.08e-11 1.64e-11 2.48e-11 3.03e-11 3.39e-11 3.62e-11 3.78e-11 3.9e-11 3.99e-11 4.07e-11 4.2e-11 4.31e-11 4.43e-11 4.53e-11 4.63e-11 4.72e-11 4.8e-11 4.88e-11 4.96e-11 5.03e-11 
06 03 04  07 03 04 5.12e-13 1.2e-12 1.91e-12 3.18e-12 4.3e-12 5.3e-12 6.21e-12 7.07e-12 7.88e-12 8.65e-12 9.4e-12 1.07e-11 1.2e-11 1.32e-11 1.42e-11 1.51e-11 1.59e-11 1.67e-11 1.73e-11 1.79e-11 1.84e-11 
06 03 04  08 03 06 2.15e-14 1.23e-13 3.02e-13 8.02e-13 1.43e-12 2.14e-12 2.94e-12 3.77e-12 4.64e-12 5.5e-12 6.36e-12 8.02e-12 9.53e-12 1.09e-11 1.22e-11 1.35e-11 1.45e-11 1.54e-11 1.63e-11 1.71e-11 1.79e-11 
06 03 04  08 03 05 5.97e-14 3.35e-13 7.99e-13 1.94e-12 3.07e-12 4.11e-12 5.05e-12 5.89e-12 6.66e-12 7.38e-12 7.98e-12 9.13e-12 1.01e-11 1.09e-11 1.16e-11 1.23e-11 1.28e-11 1.32e-11 1.36e-11 1.39e-11 1.42e-11 
06 03 04  09 03 07 2.35e-15 3.84e-14 1.57e-13 6.62e-13 1.39e-12 2.21e-12 3.03e-12 3.84e-12 4.61e-12 5.33e-12 6.02e-12 7.27e-12 8.43e-12 9.43e-12 1.04e-11 1.12e-11 1.21e-11 1.29e-11 1.35e-11 1.43e-11 1.49e-11 
06 03 04  09 03 06 1.24e-15 1.96e-14 7.75e-14 3.08e-13 6.27e-13 9.78e-13 1.34e-12 1.7e-12 2.06e-12 2.42e-12 2.77e-12 3.47e-12 4.18e-12 4.9e-12 5.63e-12 6.38e-12 7.15e-12 7.94e-12 8.74e-12 9.58e-12 1.04e-11 
06 03 04  10 03 08 4.32e-17 2.28e-15 1.63e-14 1.15e-13 3.07e-13 5.56e-13 8.3e-13 1.12e-12 1.41e-12 1.69e-12 1.98e-12 2.55e-12 3.11e-12 3.69e-12 4.28e-12 4.88e-12 5.5e-12 6.13e-12 6.79e-12 7.46e-12 8.15e-12 
06 03 04  10 03 07 6.91e-17 3.75e-15 2.76e-14 2.02e-13 5.46e-13 9.98e-13 1.51e-12 2.04e-12 2.58e-12 3.14e-12 3.69e-12 4.8e-12 5.91e-12 7e-12 8.11e-12 9.19e-12 1.03e-11 1.13e-11 1.24e-11 1.35e-11 1.46e-11 
06 03 03  01 01 01 6.63e-13 6.84e-13 7.11e-13 7.76e-13 8.38e-13 8.94e-13 9.46e-13 9.92e-13 1.03e-12 1.07e-12 1.1e-12 1.15e-12 1.19e-12 1.22e-12 1.24e-12 1.26e-12 1.27e-12 1.28e-12 1.29e-12 1.29e-12 1.3e-12 
06 03 03  01 01 00 1.17e-12 1.21e-12 1.26e-12 1.38e-12 1.5e-12 1.61e-12 1.71e-12 1.79e-12 1.87e-12 1.94e-12 2e-12 2.1e-12 2.19e-12 2.27e-12 2.34e-12 2.41e-12 2.47e-12 2.54e-12 2.6e-12 2.67e-12 2.74e-12 
06 03 03  02 01 02 8.3e-13 8.06e-13 7.89e-13 7.77e-13 7.79e-13 7.85e-13 7.95e-13 8.07e-13 8.18e-13 8.29e-13 8.39e-13 8.57e-13 8.71e-13 8.82e-13 8.91e-13 9e-13 9.07e-13 9.15e-13 9.22e-13 9.29e-13 9.36e-13 
06 03 03  02 01 01 3e-12 2.94e-12 2.93e-12 2.96e-12 3.03e-12 3.11e-12 3.19e-12 3.27e-12 3.34e-12 3.41e-12 3.47e-12 3.57e-12 3.64e-12 3.7e-12 3.74e-12 3.78e-12 3.81e-12 3.83e-12 3.85e-12 3.87e-12 3.89e-12 
06 03 03  03 01 03 1.34e-12 1.34e-12 1.37e-12 1.46e-12 1.53e-12 1.59e-12 1.63e-12 1.67e-12 1.7e-12 1.73e-12 1.75e-12 1.77e-12 1.77e-12 1.77e-12 1.76e-12 1.75e-12 1.73e-12 1.71e-12 1.69e-12 1.67e-12 1.64e-12 
06 03 03  03 01 02 3.48e-12 3.37e-12 3.3e-12 3.27e-12 3.31e-12 3.36e-12 3.43e-12 3.49e-12 3.56e-12 3.61e-12 3.67e-12 3.77e-12 3.85e-12 3.93e-12 4e-12 4.08e-12 4.15e-12 4.23e-12 4.32e-12 4.4e-12 4.49e-12 
06 03 03  04 01 04 3.01e-12 3.05e-12 3.15e-12 3.4e-12 3.67e-12 3.93e-12 4.18e-12 4.4e-12 4.61e-12 4.78e-12 4.94e-12 5.19e-12 5.38e-12 5.52e-12 5.63e-12 5.71e-12 5.78e-12 5.83e-12 5.87e-12 5.91e-12 5.94e-12 
06 03 03  04 01 03 4.15e-12 4.04e-12 4.02e-12 4.09e-12 4.18e-12 4.28e-12 4.37e-12 4.45e-12 4.52e-12 4.59e-12 4.65e-12 4.75e-12 4.84e-12 4.92e-12 5e-12 5.06e-12 5.13e-12 5.19e-12 5.24e-12 5.3e-12 5.35e-12 
06 03 03  05 01 05 6.86e-12 6.9e-12 6.99e-12 7.37e-12 7.84e-12 8.33e-12 8.8e-12 9.24e-12 9.65e-12 1e-11 1.03e-11 1.09e-11 1.13e-11 1.16e-11 1.19e-11 1.21e-11 1.23e-11 1.24e-11 1.25e-11 1.26e-11 1.27e-11 
06 03 03  05 01 04 2.05e-12 2.03e-12 2.05e-12 2.12e-12 2.2e-12 2.28e-12 2.37e-12 2.44e-12 2.51e-12 2.58e-12 2.65e-12 2.76e-12 2.87e-12 2.97e-12 3.07e-12 3.17e-12 3.27e-12 3.37e-12 3.48e-12 3.59e-12 3.7e-12 
06 03 03  06 01 06 8.27e-12 8.33e-12 8.37e-12 8.61e-12 8.94e-12 9.28e-12 9.6e-12 9.91e-12 1.02e-11 1.04e-11 1.06e-11 1.1e-11 1.12e-11 1.13e-11 1.15e-11 1.15e-11 1.16e-11 1.16e-11 1.16e-11 1.17e-11 1.17e-11 
06 03 03  06 01 05 3.01e-12 3.03e-12 3.1e-12 3.28e-12 3.49e-12 3.7e-12 3.91e-12 4.12e-12 4.33e-12 4.52e-12 4.7e-12 5.04e-12 5.35e-12 5.63e-12 5.88e-12 6.12e-12 6.34e-12 6.55e-12 6.74e-12 6.93e-12 7.11e-12 
06 03 03  07 01 07 3.91e-12 3.98e-12 4.05e-12 4.3e-12 4.62e-12 4.95e-12 5.27e-12 5.57e-12 5.83e-12 6.06e-12 6.26e-12 6.55e-12 6.74e-12 6.84e-12 6.9e-12 6.92e-12 6.92e-12 6.89e-12 6.86e-12 6.82e-12 6.78e-12 
06 03 03  07 01 06 2.09e-12 2.27e-12 2.49e-12 2.98e-12 3.44e-12 3.87e-12 4.25e-12 4.59e-12 4.89e-12 5.17e-12 5.41e-12 5.84e-12 6.21e-12 6.53e-12 6.81e-12 7.07e-12 7.32e-12 7.54e-12 7.76e-12 7.97e-12 8.17e-12 
06 03 03  08 01 08 2.19e-12 2.23e-12 2.36e-12 2.72e-12 3.14e-12 3.57e-12 3.99e-12 4.37e-12 4.72e-12 5.03e-12 5.3e-12 5.73e-12 6.06e-12 6.3e-12 6.49e-12 6.63e-12 6.75e-12 6.85e-12 6.93e-12 7e-12 7.07e-12 
06 03 03  08 01 07 3.86e-12 4.1e-12 4.3e-12 4.7e-12 5.08e-12 5.43e-12 5.76e-12 6.06e-12 6.32e-12 6.55e-12 6.75e-12 7.08e-12 7.31e-12 7.48e-12 7.6e-12 7.69e-12 7.75e-12 7.79e-12 7.8e-12 7.81e-12 7.8e-12 
06 03 03  09 01 09 7.44e-12 7.5e-12 7.47e-12 7.53e-12 7.69e-12 7.9e-12 8.14e-12 8.37e-12 8.59e-12 8.8e-12 8.98e-12 9.27e-12 9.49e-12 9.66e-12 9.8e-12 9.9e-12 1e-11 1.01e-11 1.02e-11 1.02e-11 1.03e-11 
06 03 03  09 01 08 9.2e-12 9.89e-12 1.04e-11 1.12e-11 1.18e-11 1.23e-11 1.27e-11 1.31e-11 1.33e-11 1.36e-11 1.37e-11 1.39e-11 1.4e-11 1.4e-11 1.39e-11 1.38e-11 1.37e-11 1.36e-11 1.34e-11 1.33e-11 1.32e-11 
06 03 03  10 01 10 6.5e-13 1.27e-12 1.83e-12 2.76e-12 3.46e-12 4e-12 4.43e-12 4.78e-12 5.08e-12 5.33e-12 5.55e-12 5.93e-12 6.26e-12 6.54e-12 6.79e-12 7.01e-12 7.22e-12 7.41e-12 7.58e-12 7.75e-12 7.89e-12 
06 03 03  10 01 09 3.16e-13 8.9e-13 1.49e-12 2.5e-12 3.24e-12 3.79e-12 4.21e-12 4.55e-12 4.82e-12 5.04e-12 5.23e-12 5.55e-12 5.8e-12 6.02e-12 6.2e-12 6.37e-12 6.53e-12 6.68e-12 6.81e-12 6.94e-12 7.06e-12 
06 03 03  11 01 11 1.03e-14 7.01e-14 1.89e-13 5.41e-13 9.55e-13 1.38e-12 1.78e-12 2.17e-12 2.53e-12 2.87e-12 3.18e-12 3.77e-12 4.3e-12 4.8e-12 5.27e-12 5.72e-12 6.16e-12 6.58e-12 7e-12 7.41e-12 7.82e-12 
06 03 03  11 01 10 4.98e-15 5.22e-14 1.73e-13 5.96e-13 1.13e-12 1.68e-12 2.19e-12 2.66e-12 3.08e-12 3.45e-12 3.78e-12 4.34e-12 4.79e-12 5.17e-12 5.49e-12 5.76e-12 6e-12 6.2e-12 6.37e-12 6.53e-12 6.66e-12 
06 03 03  12 01 12 2.34e-16 5.59e-15 2.8e-14 1.46e-13 3.49e-13 6.04e-13 8.87e-13 1.18e-12 1.48e-12 1.77e-12 2.05e-12 2.59e-12 3.09e-12 3.56e-12 3.99e-12 4.39e-12 4.77e-12 5.12e-12 5.46e-12 5.77e-12 6.08e-12 
06 03 03  12 01 11 1.64e-17 7.79e-16 5.55e-15 4.22e-14 1.23e-13 2.44e-13 3.93e-13 5.64e-13 7.47e-13 9.39e-13 1.14e-12 1.53e-12 1.93e-12 2.33e-12 2.72e-12 3.11e-12 3.49e-12 3.88e-12 4.26e-12 4.65e-12 5.03e-12 
06 03 03  03 03 01 4.27e-12 4.17e-12 4.17e-12 4.27e-12 4.43e-12 4.6e-12 4.78e-12 4.96e-12 5.13e-12 5.31e-12 5.49e-12 5.85e-12 6.21e-12 6.58e-12 6.96e-12 7.35e-12 7.75e-12 8.16e-12 8.58e-12 9e-12 9.44e-12 
06 03 03  03 03 00 9.28e-12 9.29e-12 9.4e-12 9.65e-12 9.85e-12 1e-11 1.02e-11 1.03e-11 1.04e-11 1.06e-11 1.07e-11 1.1e-11 1.13e-11 1.16e-11 1.18e-11 1.2e-11 1.21e-11 1.23e-11 1.24e-11 1.24e-11 1.25e-11 
06 03 03  04 03 02 7.16e-12 7.25e-12 7.42e-12 7.91e-12 8.48e-12 9.05e-12 9.59e-12 1.01e-11 1.06e-11 1.1e-11 1.13e-11 1.2e-11 1.25e-11 1.3e-11 1.34e-11 1.37e-11 1.4e-11 1.42e-11 1.44e-11 1.46e-11 1.48e-11 
06 03 03  04 03 01 5.76e-12 5.56e-12 5.56e-12 5.85e-12 6.32e-12 6.88e-12 7.46e-12 8.06e-12 8.63e-12 9.19e-12 9.72e-12 1.07e-11 1.16e-11 1.24e-11 1.31e-11 1.37e-11 1.43e-11 1.48e-11 1.52e-11 1.56e-11 1.6e-11 
06 03 03  05 03 03 4.53e-12 5.12e-12 5.76e-12 6.99e-12 8.12e-12 9.16e-12 1.01e-11 1.1e-11 1.19e-11 1.26e-11 1.33e-11 1.46e-11 1.57e-11 1.67e-11 1.75e-11 1.82e-11 1.88e-11 1.93e-11 1.97e-11 2.01e-11 2.04e-11 
06 03 03  05 03 02 4.29e-11 4.41e-11 4.51e-11 4.66e-11 4.75e-11 4.82e-11 4.86e-11 4.9e-11 4.92e-11 4.94e-11 4.96e-11 4.98e-11 4.99e-11 5e-11 5e-11 5e-11 5e-11 4.99e-11 4.98e-11 4.96e-11 4.94e-11 
06 03 03  06 03 04 2.83e-11 3.05e-11 3.17e-11 3.3e-11 3.38e-11 3.43e-11 3.46e-11 3.49e-11 3.51e-11 3.52e-11 3.53e-11 3.55e-11 3.55e-11 3.55e-11 3.54e-11 3.53e-11 3.52e-11 3.51e-11 3.5e-11 3.48e-11 3.46e-11 
06 03 03  06 03 03 0 0 0 0 0 0 0 0 0 0 0 0 0 0 0 0 0 0 0 0 0 
06 03 03  07 03 05 5.81e-13 1.36e-12 2.13e-12 3.51e-12 4.69e-12 5.72e-12 6.66e-12 7.52e-12 8.32e-12 9.06e-12 9.85e-12 1.12e-11 1.24e-11 1.36e-11 1.45e-11 1.55e-11 1.63e-11 1.71e-11 1.77e-11 1.83e-11 1.88e-11 
06 03 03  07 03 04 4.73e-12 1.08e-11 1.63e-11 2.46e-11 3e-11 3.34e-11 3.56e-11 3.71e-11 3.82e-11 3.9e-11 3.97e-11 4.07e-11 4.17e-11 4.25e-11 4.32e-11 4.39e-11 4.45e-11 4.5e-11 4.54e-11 4.58e-11 4.61e-11 
06 03 03  08 03 06 6.18e-14 3.51e-13 8.44e-13 2.08e-12 3.32e-12 4.47e-12 5.51e-12 6.43e-12 7.33e-12 8.11e-12 8.83e-12 1.01e-11 1.12e-11 1.21e-11 1.29e-11 1.36e-11 1.41e-11 1.46e-11 1.5e-11 1.53e-11 1.55e-11 
06 03 03  08 03 05 3e-14 1.69e-13 4.06e-13 1.03e-12 1.75e-12 2.54e-12 3.38e-12 4.27e-12 5.18e-12 6.1e-12 7.01e-12 8.79e-12 1.04e-11 1.2e-11 1.34e-11 1.47e-11 1.59e-11 1.69e-11 1.78e-11 1.88e-11 1.96e-11 
06 03 03  09 03 07 1.13e-15 1.83e-14 7.44e-14 3.13e-13 6.7e-13 1.09e-12 1.53e-12 1.99e-12 2.44e-12 2.9e-12 3.35e-12 4.23e-12 5.09e-12 5.95e-12 6.8e-12 7.65e-12 8.52e-12 9.4e-12 1.03e-11 1.12e-11 1.22e-11 
06 03 03  09 03 06 2.43e-15 3.97e-14 1.63e-13 6.88e-13 1.45e-12 2.3e-12 3.18e-12 4.03e-12 4.84e-12 5.61e-12 6.32e-12 7.7e-12 8.83e-12 9.95e-12 1.09e-11 1.17e-11 1.26e-11 1.32e-11 1.39e-11 1.45e-11 1.5e-11 
06 03 03  10 03 08 7.6e-17 4.12e-15 3.02e-14 2.21e-13 5.97e-13 1.09e-12 1.63e-12 2.19e-12 2.75e-12 3.3e-12 3.83e-12 4.85e-12 5.79e-12 6.68e-12 7.51e-12 8.3e-12 9.04e-12 9.73e-12 1.04e-11 1.1e-11 1.16e-11 
06 03 03  10 03 07 2.6e-17 1.37e-15 9.82e-15 6.99e-14 1.88e-13 3.47e-13 5.26e-13 7.22e-13 9.22e-13 1.12e-12 1.33e-12 1.73e-12 2.14e-12 2.54e-12 2.93e-12 3.32e-12 3.71e-12 4.09e-12 4.47e-12 4.86e-12 5.24e-12 
07 03 05  01 01 01 1.55e-12 1.52e-12 1.52e-12 1.54e-12 1.54e-12 1.54e-12 1.52e-12 1.51e-12 1.49e-12 1.48e-12 1.47e-12 1.46e-12 1.46e-12 1.47e-12 1.48e-12 1.5e-12 1.52e-12 1.53e-12 1.55e-12 1.57e-12 1.59e-12 
07 03 05  01 01 00 1.16e-12 1.09e-12 1.04e-12 9.79e-13 9.3e-13 8.89e-13 8.53e-13 8.23e-13 7.97e-13 7.76e-13 7.57e-13 7.3e-13 7.12e-13 7e-13 6.93e-13 6.91e-13 6.91e-13 6.94e-13 6.98e-13 7.05e-13 7.12e-13 
07 03 05  02 01 02 1.83e-12 1.82e-12 1.84e-12 1.92e-12 1.99e-12 2.05e-12 2.09e-12 2.13e-12 2.17e-12 2.22e-12 2.26e-12 2.34e-12 2.42e-12 2.49e-12 2.56e-12 2.63e-12 2.69e-12 2.75e-12 2.8e-12 2.84e-12 2.88e-12 
07 03 05  02 01 01 1.73e-12 1.65e-12 1.59e-12 1.52e-12 1.46e-12 1.41e-12 1.37e-12 1.33e-12 1.29e-12 1.27e-12 1.24e-12 1.21e-12 1.18e-12 1.17e-12 1.17e-12 1.17e-12 1.18e-12 1.19e-12 1.2e-12 1.22e-12 1.24e-12 
07 03 05  03 01 03 3.35e-12 3.25e-12 3.21e-12 3.19e-12 3.21e-12 3.23e-12 3.26e-12 3.31e-12 3.36e-12 3.41e-12 3.48e-12 3.62e-12 3.76e-12 3.9e-12 4.04e-12 4.18e-12 4.3e-12 4.43e-12 4.54e-12 4.65e-12 4.75e-12 
07 03 05  03 01 02 1.22e-12 1.16e-12 1.12e-12 1.07e-12 1.04e-12 1.02e-12 1.01e-12 1.01e-12 1.01e-12 1.01e-12 1.02e-12 1.04e-12 1.07e-12 1.09e-12 1.12e-12 1.14e-12 1.17e-12 1.19e-12 1.21e-12 1.23e-12 1.25e-12 
07 03 05  04 01 04 3.85e-12 3.67e-12 3.56e-12 3.42e-12 3.34e-12 3.29e-12 3.27e-12 3.27e-12 3.3e-12 3.33e-12 3.39e-12 3.52e-12 3.68e-12 3.86e-12 4.06e-12 4.26e-12 4.47e-12 4.68e-12 4.89e-12 5.1e-12 5.32e-12 
07 03 05  04 01 03 1.43e-12 1.38e-12 1.35e-12 1.32e-12 1.32e-12 1.32e-12 1.33e-12 1.35e-12 1.37e-12 1.39e-12 1.41e-12 1.46e-12 1.51e-12 1.55e-12 1.6e-12 1.64e-12 1.69e-12 1.73e-12 1.77e-12 1.81e-12 1.85e-12 
07 03 05  05 01 05 2.89e-12 2.74e-12 2.66e-12 2.56e-12 2.51e-12 2.49e-12 2.48e-12 2.49e-12 2.5e-12 2.53e-12 2.56e-12 2.64e-12 2.74e-12 2.84e-12 2.96e-12 3.07e-12 3.19e-12 3.31e-12 3.42e-12 3.54e-12 3.65e-12 
07 03 05  05 01 04 2.54e-12 2.45e-12 2.4e-12 2.34e-12 2.32e-12 2.32e-12 2.32e-12 2.34e-12 2.36e-12 2.4e-12 2.43e-12 2.52e-12 2.62e-12 2.74e-12 2.86e-12 2.98e-12 3.12e-12 3.25e-12 3.39e-12 3.54e-12 3.68e-12 
07 03 05  06 01 06 2.14e-12 2.06e-12 2.03e-12 2e-12 1.99e-12 1.99e-12 2.01e-12 2.02e-12 2.05e-12 2.08e-12 2.1e-12 2.16e-12 2.22e-12 2.28e-12 2.34e-12 2.39e-12 2.44e-12 2.48e-12 2.52e-12 2.56e-12 2.6e-12 
07 03 05  06 01 05 5.81e-12 5.65e-12 5.59e-12 5.58e-12 5.6e-12 5.64e-12 5.69e-12 5.76e-12 5.85e-12 5.96e-12 6.08e-12 6.34e-12 6.63e-12 6.92e-12 7.22e-12 7.51e-12 7.79e-12 8.07e-12 8.33e-12 8.58e-12 8.83e-12 
07 03 05  07 01 07 3.98e-12 3.9e-12 3.89e-12 3.94e-12 4.03e-12 4.14e-12 4.27e-12 4.41e-12 4.55e-12 4.71e-12 4.86e-12 5.17e-12 5.48e-12 5.77e-12 6.05e-12 6.32e-12 6.58e-12 6.82e-12 7.06e-12 7.28e-12 7.49e-12 
07 03 05  07 01 06 2.65e-12 2.67e-12 2.73e-12 2.88e-12 3.01e-12 3.14e-12 3.26e-12 3.38e-12 3.49e-12 3.6e-12 3.71e-12 3.93e-12 4.14e-12 4.35e-12 4.56e-12 4.76e-12 4.96e-12 5.16e-12 5.36e-12 5.56e-12 5.76e-12 
07 03 05  08 01 08 7.17e-12 7.05e-12 7.03e-12 7.08e-12 7.15e-12 7.23e-12 7.3e-12 7.39e-12 7.49e-12 7.61e-12 7.73e-12 8e-12 8.28e-12 8.55e-12 8.81e-12 9.05e-12 9.28e-12 9.48e-12 9.66e-12 9.81e-12 9.95e-12 
07 03 05  08 01 07 2.91e-12 2.96e-12 3.02e-12 3.15e-12 3.27e-12 3.39e-12 3.51e-12 3.63e-12 3.75e-12 3.87e-12 3.98e-12 4.21e-12 4.41e-12 4.6e-12 4.77e-12 4.92e-12 5.06e-12 5.2e-12 5.32e-12 5.43e-12 5.53e-12 
07 03 05  09 01 09 6.14e-12 5.94e-12 5.84e-12 5.79e-12 5.84e-12 5.93e-12 6.05e-12 6.18e-12 6.33e-12 6.48e-12 6.63e-12 6.94e-12 7.23e-12 7.5e-12 7.73e-12 7.94e-12 8.13e-12 8.28e-12 8.41e-12 8.51e-12 8.59e-12 
07 03 05  09 01 08 4.45e-12 4.68e-12 4.92e-12 5.34e-12 5.66e-12 5.89e-12 6.09e-12 6.26e-12 6.41e-12 6.55e-12 6.68e-12 6.92e-12 7.13e-12 7.33e-12 7.51e-12 7.68e-12 7.84e-12 8e-12 8.14e-12 8.27e-12 8.4e-12 
07 03 05  10 01 10 2.87e-12 3.08e-12 3.28e-12 3.7e-12 4.08e-12 4.42e-12 4.72e-12 4.97e-12 5.18e-12 5.37e-12 5.54e-12 5.81e-12 6.04e-12 6.22e-12 6.37e-12 6.49e-12 6.6e-12 6.69e-12 6.76e-12 6.82e-12 6.86e-12 
07 03 05  10 01 09 4.33e-12 5.51e-12 6.16e-12 6.76e-12 7e-12 7.12e-12 7.2e-12 7.27e-12 7.33e-12 7.38e-12 7.44e-12 7.55e-12 7.66e-12 7.77e-12 7.87e-12 7.98e-12 8.08e-12 8.18e-12 8.27e-12 8.35e-12 8.43e-12 
07 03 05  11 01 11 9.99e-14 2.81e-13 4.74e-13 8.13e-13 1.09e-12 1.34e-12 1.56e-12 1.76e-12 1.95e-12 2.13e-12 2.3e-12 2.61e-12 2.89e-12 3.15e-12 3.39e-12 3.62e-12 3.84e-12 4.05e-12 4.25e-12 4.45e-12 4.64e-12 
07 03 05  11 01 10 1.23e-13 5.63e-13 1.21e-12 2.61e-12 3.83e-12 4.8e-12 5.57e-12 6.17e-12 6.65e-12 7.04e-12 7.37e-12 7.88e-12 8.27e-12 8.57e-12 8.82e-12 9.03e-12 9.21e-12 9.36e-12 9.49e-12 9.6e-12 9.69e-12 
07 03 05  12 01 12 3.32e-15 3.46e-14 1.12e-13 3.65e-13 6.62e-13 9.54e-13 1.23e-12 1.48e-12 1.72e-12 1.94e-12 2.15e-12 2.55e-12 2.92e-12 3.26e-12 3.58e-12 3.89e-12 4.18e-12 4.46e-12 4.73e-12 4.99e-12 5.24e-12 
07 03 05  12 01 11 6.51e-16 1.32e-14 6.02e-14 2.8e-13 6.14e-13 9.93e-13 1.38e-12 1.75e-12 2.1e-12 2.43e-12 2.75e-12 3.33e-12 3.86e-12 4.38e-12 4.87e-12 5.36e-12 5.86e-12 6.35e-12 6.85e-12 7.36e-12 7.87e-12 
07 03 05  03 03 01 2.52e-12 2.5e-12 2.51e-12 2.56e-12 2.62e-12 2.7e-12 2.78e-12 2.87e-12 2.97e-12 3.07e-12 3.17e-12 3.38e-12 3.6e-12 3.83e-12 4.06e-12 4.3e-12 4.54e-12 4.79e-12 5.04e-12 5.3e-12 5.57e-12 
07 03 05  03 03 00 6.12e-12 6.09e-12 6.14e-12 6.26e-12 6.35e-12 6.43e-12 6.5e-12 6.58e-12 6.67e-12 6.78e-12 6.9e-12 7.18e-12 7.48e-12 7.8e-12 8.11e-12 8.42e-12 8.72e-12 9e-12 9.27e-12 9.53e-12 9.77e-12 
07 03 05  04 03 02 9.29e-12 9.12e-12 9.06e-12 9.03e-12 9e-12 8.97e-12 8.94e-12 8.95e-12 8.98e-12 9.04e-12 9.13e-12 9.34e-12 9.6e-12 9.86e-12 1.01e-11 1.04e-11 1.06e-11 1.08e-11 1.1e-11 1.11e-11 1.12e-11 
07 03 05  04 03 01 4.84e-12 4.57e-12 4.39e-12 4.18e-12 4.09e-12 4.08e-12 4.11e-12 4.17e-12 4.27e-12 4.4e-12 4.54e-12 4.88e-12 5.28e-12 5.71e-12 6.18e-12 6.67e-12 7.18e-12 7.71e-12 8.26e-12 8.82e-12 9.39e-12 
07 03 05  05 03 03 3.87e-12 3.86e-12 3.95e-12 4.29e-12 4.74e-12 5.26e-12 5.82e-12 6.41e-12 7.01e-12 7.62e-12 8.23e-12 9.41e-12 1.05e-11 1.16e-11 1.25e-11 1.34e-11 1.42e-11 1.5e-11 1.56e-11 1.62e-11 1.67e-11 
07 03 05  05 03 02 8.49e-12 8.34e-12 8.31e-12 8.39e-12 8.49e-12 8.6e-12 8.7e-12 8.8e-12 8.92e-12 9.05e-12 9.18e-12 9.47e-12 9.77e-12 1.01e-11 1.03e-11 1.06e-11 1.08e-11 1.1e-11 1.12e-11 1.13e-11 1.14e-11 
07 03 05  06 03 04 4.74e-11 4.78e-11 4.82e-11 4.86e-11 4.84e-11 4.79e-11 4.72e-11 4.65e-11 4.59e-11 4.54e-11 4.51e-11 4.46e-11 4.45e-11 4.47e-11 4.5e-11 4.53e-11 4.57e-11 4.61e-11 4.65e-11 4.69e-11 4.73e-11 
07 03 05  06 03 03 5.81e-12 6.01e-12 6.27e-12 6.87e-12 7.49e-12 8.09e-12 8.67e-12 9.24e-12 9.79e-12 1.03e-11 1.09e-11 1.19e-11 1.28e-11 1.37e-11 1.44e-11 1.52e-11 1.58e-11 1.64e-11 1.69e-11 1.73e-11 1.77e-11 
07 03 05  07 03 05 0 0 0 0 0 0 0 0 0 0 0 0 0 0 0 0 0 0 0 0 0 
07 03 05  07 03 04 2.72e-11 2.85e-11 2.88e-11 3.02e-11 3.38e-11 3.88e-11 4.41e-11 4.9e-11 5.32e-11 5.66e-11 5.93e-11 6.27e-11 6.43e-11 6.47e-11 6.43e-11 6.35e-11 6.24e-11 6.11e-11 5.97e-11 5.83e-11 5.68e-11 
07 03 05  08 03 06 3.36e-12 8.56e-12 1.38e-11 2.22e-11 2.82e-11 3.27e-11 3.59e-11 3.85e-11 4.05e-11 4.21e-11 4.35e-11 4.56e-11 4.72e-11 4.84e-11 4.95e-11 5.03e-11 5.09e-11 5.14e-11 5.19e-11 5.22e-11 5.25e-11 
07 03 05  08 03 05 3.27e-13 8.49e-13 1.4e-12 2.45e-12 3.43e-12 4.39e-12 5.33e-12 6.23e-12 7.11e-12 7.95e-12 8.74e-12 1.02e-11 1.16e-11 1.28e-11 1.4e-11 1.5e-11 1.6e-11 1.69e-11 1.76e-11 1.85e-11 1.92e-11 
07 03 05  09 03 07 7.78e-15 5.87e-14 1.68e-13 5.27e-13 1.03e-12 1.66e-12 2.39e-12 3.19e-12 4.04e-12 4.92e-12 5.81e-12 7.57e-12 9.28e-12 1.08e-11 1.23e-11 1.37e-11 1.48e-11 1.59e-11 1.69e-11 1.78e-11 1.87e-11 
07 03 05  09 03 06 3.17e-14 2.26e-13 6.06e-13 1.64e-12 2.73e-12 3.74e-12 4.67e-12 5.53e-12 6.27e-12 7.01e-12 7.69e-12 8.88e-12 9.86e-12 1.08e-11 1.16e-11 1.23e-11 1.29e-11 1.34e-11 1.39e-11 1.42e-11 1.47e-11 
07 03 05  10 03 08 7.53e-16 1.84e-14 9.14e-14 4.63e-13 1.06e-12 1.76e-12 2.5e-12 3.24e-12 3.96e-12 4.64e-12 5.29e-12 6.51e-12 7.56e-12 8.46e-12 9.28e-12 1.01e-11 1.07e-11 1.12e-11 1.17e-11 1.21e-11 1.25e-11 
07 03 05  10 03 07 4.11e-16 9.67e-15 4.66e-14 2.22e-13 4.85e-13 7.79e-13 1.08e-12 1.37e-12 1.65e-12 1.93e-12 2.2e-12 2.72e-12 3.22e-12 3.7e-12 4.19e-12 4.66e-12 5.13e-12 5.61e-12 6.09e-12 6.57e-12 7.04e-12 
07 03 04  01 01 01 3.7e-13 3.79e-13 3.94e-13 4.25e-13 4.5e-13 4.69e-13 4.85e-13 5e-13 5.14e-13 5.29e-13 5.44e-13 5.74e-13 6.03e-13 6.32e-13 6.6e-13 6.85e-13 7.08e-13 7.29e-13 7.48e-13 7.65e-13 7.8e-13 
07 03 04  01 01 00 5.07e-13 5.11e-13 5.26e-13 5.6e-13 5.92e-13 6.18e-13 6.41e-13 6.62e-13 6.82e-13 7.02e-13 7.22e-13 7.59e-13 7.96e-13 8.3e-13 8.63e-13 8.93e-13 9.21e-13 9.47e-13 9.71e-13 9.93e-13 1.01e-12 
07 03 04  02 01 02 9.09e-13 8.73e-13 8.51e-13 8.2e-13 7.95e-13 7.73e-13 7.55e-13 7.41e-13 7.31e-13 7.24e-13 7.19e-13 7.17e-13 7.19e-13 7.26e-13 7.34e-13 7.43e-13 7.53e-13 7.63e-13 7.72e-13 7.82e-13 7.91e-13 
07 03 04  02 01 01 1.84e-12 1.78e-12 1.75e-12 1.72e-12 1.71e-12 1.71e-12 1.71e-12 1.72e-12 1.73e-12 1.75e-12 1.78e-12 1.84e-12 1.91e-12 1.98e-12 2.06e-12 2.14e-12 2.22e-12 2.3e-12 2.38e-12 2.46e-12 2.54e-12 
07 03 04  03 01 03 9.78e-13 9.41e-13 9.22e-13 9.08e-13 9.1e-13 9.2e-13 9.34e-13 9.5e-13 9.66e-13 9.83e-13 1e-12 1.03e-12 1.06e-12 1.08e-12 1.11e-12 1.12e-12 1.14e-12 1.16e-12 1.17e-12 1.18e-12 1.2e-12 
07 03 04  03 01 02 4.01e-12 3.86e-12 3.77e-12 3.66e-12 3.58e-12 3.51e-12 3.46e-12 3.43e-12 3.41e-12 3.41e-12 3.41e-12 3.45e-12 3.5e-12 3.57e-12 3.64e-12 3.71e-12 3.78e-12 3.85e-12 3.91e-12 3.96e-12 4.01e-12 
07 03 04  04 01 04 1.82e-12 1.81e-12 1.84e-12 1.93e-12 2.02e-12 2.09e-12 2.16e-12 2.22e-12 2.28e-12 2.33e-12 2.38e-12 2.48e-12 2.57e-12 2.65e-12 2.72e-12 2.79e-12 2.86e-12 2.92e-12 2.97e-12 3.02e-12 3.07e-12 
07 03 04  04 01 03 3.5e-12 3.31e-12 3.19e-12 3.04e-12 2.95e-12 2.89e-12 2.85e-12 2.83e-12 2.83e-12 2.84e-12 2.85e-12 2.91e-12 2.99e-12 3.09e-12 3.2e-12 3.31e-12 3.44e-12 3.57e-12 3.7e-12 3.84e-12 3.98e-12 
07 03 04  05 01 05 3.94e-12 3.85e-12 3.82e-12 3.82e-12 3.84e-12 3.85e-12 3.87e-12 3.89e-12 3.93e-12 3.97e-12 4.03e-12 4.15e-12 4.28e-12 4.42e-12 4.56e-12 4.7e-12 4.83e-12 4.95e-12 5.07e-12 5.19e-12 5.29e-12 
07 03 04  05 01 04 4.22e-12 4.06e-12 3.98e-12 3.92e-12 3.91e-12 3.91e-12 3.92e-12 3.94e-12 3.97e-12 4e-12 4.05e-12 4.15e-12 4.26e-12 4.38e-12 4.5e-12 4.62e-12 4.74e-12 4.85e-12 4.97e-12 5.08e-12 5.18e-12 
07 03 04  06 01 06 6.68e-12 6.42e-12 6.29e-12 6.19e-12 6.17e-12 6.19e-12 6.24e-12 6.32e-12 6.42e-12 6.54e-12 6.67e-12 6.96e-12 7.27e-12 7.57e-12 7.87e-12 8.15e-12 8.4e-12 8.64e-12 8.86e-12 9.06e-12 9.24e-12 
07 03 04  06 01 05 2.28e-12 2.21e-12 2.17e-12 2.13e-12 2.11e-12 2.11e-12 2.11e-12 2.13e-12 2.16e-12 2.19e-12 2.22e-12 2.28e-12 2.35e-12 2.43e-12 2.5e-12 2.57e-12 2.64e-12 2.72e-12 2.8e-12 2.87e-12 2.95e-12 
07 03 04  07 01 07 7.17e-12 6.84e-12 6.64e-12 6.41e-12 6.28e-12 6.2e-12 6.15e-12 6.13e-12 6.13e-12 6.16e-12 6.19e-12 6.3e-12 6.44e-12 6.6e-12 6.76e-12 6.93e-12 7.09e-12 7.25e-12 7.4e-12 7.54e-12 7.68e-12 
07 03 04  07 01 06 4.12e-12 3.99e-12 3.93e-12 3.9e-12 3.93e-12 3.99e-12 4.08e-12 4.18e-12 4.3e-12 4.43e-12 4.56e-12 4.84e-12 5.12e-12 5.39e-12 5.66e-12 5.91e-12 6.16e-12 6.39e-12 6.62e-12 6.84e-12 7.05e-12 
07 03 04  08 01 08 3.28e-12 3.08e-12 2.94e-12 2.78e-12 2.71e-12 2.7e-12 2.73e-12 2.78e-12 2.85e-12 2.93e-12 3.01e-12 3.19e-12 3.38e-12 3.56e-12 3.74e-12 3.91e-12 4.07e-12 4.23e-12 4.38e-12 4.53e-12 4.67e-12 
07 03 04  08 01 07 2.26e-12 2.38e-12 2.55e-12 2.94e-12 3.31e-12 3.63e-12 3.91e-12 4.16e-12 4.4e-12 4.62e-12 4.83e-12 5.22e-12 5.59e-12 5.96e-12 6.31e-12 6.66e-12 7e-12 7.35e-12 7.69e-12 8.03e-12 8.38e-12 
07 03 04  09 01 09 2.36e-12 2.37e-12 2.43e-12 2.59e-12 2.78e-12 2.98e-12 3.19e-12 3.4e-12 3.61e-12 3.81e-12 4.01e-12 4.38e-12 4.73e-12 5.03e-12 5.31e-12 5.56e-12 5.78e-12 5.98e-12 6.16e-12 6.32e-12 6.47e-12 
07 03 04  09 01 08 4.4e-12 4.4e-12 4.45e-12 4.59e-12 4.74e-12 4.88e-12 5.02e-12 5.16e-12 5.3e-12 5.43e-12 5.57e-12 5.81e-12 6.04e-12 6.24e-12 6.42e-12 6.57e-12 6.71e-12 6.83e-12 6.93e-12 7.01e-12 7.08e-12 
07 03 04  10 01 10 6.58e-12 6.47e-12 6.3e-12 6.04e-12 5.9e-12 5.85e-12 5.86e-12 5.9e-12 5.96e-12 6.04e-12 6.14e-12 6.34e-12 6.56e-12 6.79e-12 7.03e-12 7.28e-12 7.52e-12 7.76e-12 8e-12 8.25e-12 8.49e-12 
07 03 04  10 01 09 4.91e-12 6.48e-12 7.49e-12 8.68e-12 9.31e-12 9.68e-12 9.91e-12 1.01e-11 1.02e-11 1.03e-11 1.03e-11 1.04e-11 1.05e-11 1.06e-11 1.07e-11 1.07e-11 1.08e-11 1.08e-11 1.09e-11 1.1e-11 1.1e-11 
07 03 04  11 01 11 2.39e-13 6.92e-13 1.2e-12 2.13e-12 2.9e-12 3.51e-12 4e-12 4.42e-12 4.77e-12 5.09e-12 5.37e-12 5.87e-12 6.31e-12 6.72e-12 7.09e-12 7.44e-12 7.78e-12 8.09e-12 8.4e-12 8.69e-12 8.96e-12 
07 03 04  11 01 10 7.82e-14 3.58e-13 7.7e-13 1.67e-12 2.46e-12 3.11e-12 3.64e-12 4.08e-12 4.44e-12 4.74e-12 4.99e-12 5.41e-12 5.73e-12 5.98e-12 6.18e-12 6.34e-12 6.47e-12 6.58e-12 6.66e-12 6.72e-12 6.76e-12 
07 03 04  12 01 12 2.23e-15 2.42e-14 8.27e-14 3.04e-13 6.17e-13 9.78e-13 1.36e-12 1.74e-12 2.12e-12 2.49e-12 2.84e-12 3.5e-12 4.11e-12 4.67e-12 5.18e-12 5.66e-12 6.1e-12 6.53e-12 6.93e-12 7.31e-12 7.67e-12 
07 03 04  12 01 11 9.93e-16 2.01e-14 9.14e-14 4.22e-13 9.14e-13 1.46e-12 2.01e-12 2.52e-12 3e-12 3.45e-12 3.86e-12 4.62e-12 5.29e-12 5.93e-12 6.52e-12 7.1e-12 7.67e-12 8.22e-12 8.78e-12 9.33e-12 9.88e-12 
07 03 04  03 03 01 7.01e-12 6.92e-12 6.91e-12 6.93e-12 6.93e-12 6.92e-12 6.92e-12 6.94e-12 6.98e-12 7.04e-12 7.13e-12 7.34e-12 7.59e-12 7.86e-12 8.13e-12 8.4e-12 8.67e-12 8.92e-12 9.15e-12 9.38e-12 9.59e-12 
07 03 04  03 03 00 3.29e-12 3.22e-12 3.2e-12 3.19e-12 3.22e-12 3.26e-12 3.31e-12 3.38e-12 3.46e-12 3.54e-12 3.64e-12 3.83e-12 4.04e-12 4.25e-12 4.48e-12 4.71e-12 4.94e-12 5.19e-12 5.43e-12 5.69e-12 5.95e-12 
07 03 04  04 03 02 3.97e-12 3.82e-12 3.75e-12 3.74e-12 3.81e-12 3.92e-12 4.05e-12 4.2e-12 4.36e-12 4.54e-12 4.72e-12 5.13e-12 5.56e-12 6.02e-12 6.48e-12 6.96e-12 7.44e-12 7.93e-12 8.42e-12 8.92e-12 9.42e-12 
07 03 04  04 03 01 8.75e-12 8.71e-12 8.77e-12 8.96e-12 9.08e-12 9.16e-12 9.23e-12 9.29e-12 9.38e-12 9.48e-12 9.6e-12 9.87e-12 1.02e-11 1.05e-11 1.08e-11 1.11e-11 1.14e-11 1.16e-11 1.18e-11 1.2e-11 1.22e-11 
07 03 04  05 03 03 7.4e-12 7.35e-12 7.41e-12 7.64e-12 7.88e-12 8.11e-12 8.32e-12 8.53e-12 8.74e-12 8.95e-12 9.17e-12 9.59e-12 1e-11 1.04e-11 1.08e-11 1.11e-11 1.14e-11 1.16e-11 1.18e-11 1.2e-11 1.22e-11 
07 03 04  05 03 02 4.85e-12 4.77e-12 4.78e-12 4.96e-12 5.27e-12 5.67e-12 6.13e-12 6.63e-12 7.15e-12 7.69e-12 8.23e-12 9.29e-12 1.03e-11 1.12e-11 1.21e-11 1.28e-11 1.36e-11 1.42e-11 1.47e-11 1.53e-11 1.57e-11 
07 03 04  06 03 04 5.12e-12 5.33e-12 5.61e-12 6.23e-12 6.87e-12 7.49e-12 8.09e-12 8.69e-12 9.27e-12 9.84e-12 1.04e-11 1.14e-11 1.24e-11 1.33e-11 1.41e-11 1.48e-11 1.54e-11 1.6e-11 1.65e-11 1.69e-11 1.73e-11 
07 03 04  06 03 03 4.73e-11 4.76e-11 4.8e-11 4.82e-11 4.79e-11 4.72e-11 4.64e-11 4.56e-11 4.49e-11 4.44e-11 4.39e-11 4.33e-11 4.3e-11 4.29e-11 4.29e-11 4.3e-11 4.31e-11 4.32e-11 4.32e-11 4.33e-11 4.33e-11 
07 03 04  07 03 05 2.72e-11 2.85e-11 2.88e-11 3.02e-11 3.38e-11 3.88e-11 4.41e-11 4.9e-11 5.32e-11 5.66e-11 5.93e-11 6.27e-11 6.43e-11 6.47e-11 6.43e-11 6.35e-11 6.24e-11 6.11e-11 5.97e-11 5.83e-11 5.68e-11 
07 03 04  07 03 04 0 0 0 0 0 0 0 0 0 0 0 0 0 0 0 0 0 0 0 0 0 
07 03 04  08 03 06 4.05e-13 1.05e-12 1.71e-12 2.94e-12 4.04e-12 5.05e-12 6.01e-12 6.9e-12 7.74e-12 8.56e-12 9.26e-12 1.06e-11 1.18e-11 1.28e-11 1.38e-11 1.47e-11 1.55e-11 1.61e-11 1.68e-11 1.74e-11 1.8e-11 
07 03 04  08 03 05 3.32e-12 8.51e-12 1.37e-11 2.21e-11 2.81e-11 3.25e-11 3.56e-11 3.81e-11 4e-11 4.15e-11 4.28e-11 4.49e-11 4.64e-11 4.76e-11 4.86e-11 4.95e-11 5.02e-11 5.08e-11 5.13e-11 5.17e-11 5.2e-11 
07 03 04  09 03 07 2.94e-14 2.13e-13 5.81e-13 1.62e-12 2.76e-12 3.85e-12 4.85e-12 5.8e-12 6.63e-12 7.4e-12 8.11e-12 9.42e-12 1.05e-11 1.15e-11 1.25e-11 1.33e-11 1.39e-11 1.46e-11 1.51e-11 1.57e-11 1.61e-11 
07 03 04  09 03 06 1.16e-14 8.48e-14 2.33e-13 6.82e-13 1.25e-12 1.91e-12 2.63e-12 3.4e-12 4.2e-12 5.01e-12 5.83e-12 7.44e-12 8.95e-12 1.05e-11 1.18e-11 1.31e-11 1.43e-11 1.54e-11 1.64e-11 1.74e-11 1.83e-11 
07 03 04  10 03 08 3.63e-16 8.68e-15 4.25e-14 2.1e-13 4.79e-13 8.04e-13 1.15e-12 1.52e-12 1.89e-12 2.25e-12 2.62e-12 3.36e-12 4.09e-12 4.84e-12 5.6e-12 6.37e-12 7.16e-12 7.97e-12 8.81e-12 9.66e-12 1.05e-11 
07 03 04  10 03 07 7.66e-16 1.89e-14 9.49e-14 4.86e-13 1.12e-12 1.88e-12 2.68e-12 3.48e-12 4.27e-12 5.05e-12 5.78e-12 7.14e-12 8.49e-12 9.71e-12 1.09e-11 1.2e-11 1.3e-11 1.41e-11 1.51e-11 1.61e-11 1.71e-11 
08 03 06  01 01 01 9.04e-13 8.81e-13 8.78e-13 8.96e-13 9.25e-13 9.53e-13 9.78e-13 1e-12 1.02e-12 1.03e-12 1.05e-12 1.07e-12 1.1e-12 1.12e-12 1.14e-12 1.16e-12 1.18e-12 1.21e-12 1.24e-12 1.26e-12 1.29e-12 
08 03 06  01 01 00 1.35e-12 1.33e-12 1.33e-12 1.35e-12 1.37e-12 1.38e-12 1.39e-12 1.4e-12 1.4e-12 1.4e-12 1.41e-12 1.41e-12 1.41e-12 1.4e-12 1.4e-12 1.4e-12 1.39e-12 1.39e-12 1.38e-12 1.37e-12 1.36e-12 
08 03 06  02 01 02 1.51e-12 1.5e-12 1.52e-12 1.59e-12 1.67e-12 1.74e-12 1.81e-12 1.87e-12 1.92e-12 1.97e-12 2.01e-12 2.08e-12 2.14e-12 2.19e-12 2.24e-12 2.28e-12 2.32e-12 2.36e-12 2.39e-12 2.42e-12 2.46e-12 
08 03 06  02 01 01 1.34e-12 1.3e-12 1.28e-12 1.28e-12 1.29e-12 1.3e-12 1.31e-12 1.32e-12 1.32e-12 1.33e-12 1.33e-12 1.34e-12 1.34e-12 1.34e-12 1.34e-12 1.34e-12 1.34e-12 1.34e-12 1.33e-12 1.33e-12 1.32e-12 
08 03 06  03 01 03 1.99e-12 1.95e-12 1.94e-12 1.98e-12 2.03e-12 2.08e-12 2.14e-12 2.2e-12 2.26e-12 2.32e-12 2.38e-12 2.51e-12 2.64e-12 2.76e-12 2.87e-12 2.97e-12 3.07e-12 3.17e-12 3.25e-12 3.33e-12 3.41e-12 
08 03 06  03 01 02 1.4e-12 1.36e-12 1.34e-12 1.33e-12 1.34e-12 1.35e-12 1.36e-12 1.37e-12 1.38e-12 1.38e-12 1.39e-12 1.4e-12 1.41e-12 1.43e-12 1.44e-12 1.45e-12 1.47e-12 1.48e-12 1.5e-12 1.52e-12 1.53e-12 
08 03 06  04 01 04 3.34e-12 3.23e-12 3.18e-12 3.15e-12 3.16e-12 3.18e-12 3.23e-12 3.28e-12 3.34e-12 3.41e-12 3.48e-12 3.63e-12 3.78e-12 3.92e-12 4.04e-12 4.16e-12 4.27e-12 4.36e-12 4.44e-12 4.52e-12 4.58e-12 
08 03 06  04 01 03 1.16e-12 1.11e-12 1.09e-12 1.06e-12 1.04e-12 1.04e-12 1.04e-12 1.04e-12 1.05e-12 1.05e-12 1.07e-12 1.09e-12 1.12e-12 1.16e-12 1.19e-12 1.23e-12 1.27e-12 1.31e-12 1.35e-12 1.4e-12 1.44e-12 
08 03 06  05 01 05 3.42e-12 3.3e-12 3.23e-12 3.18e-12 3.18e-12 3.2e-12 3.25e-12 3.3e-12 3.37e-12 3.44e-12 3.51e-12 3.67e-12 3.84e-12 4.01e-12 4.19e-12 4.38e-12 4.56e-12 4.75e-12 4.94e-12 5.13e-12 5.32e-12 
08 03 06  05 01 04 1.79e-12 1.72e-12 1.69e-12 1.66e-12 1.65e-12 1.67e-12 1.69e-12 1.72e-12 1.76e-12 1.79e-12 1.83e-12 1.9e-12 1.97e-12 2.03e-12 2.08e-12 2.13e-12 2.18e-12 2.22e-12 2.26e-12 2.29e-12 2.32e-12 
08 03 06  06 01 06 2.22e-12 2.14e-12 2.11e-12 2.11e-12 2.16e-12 2.23e-12 2.3e-12 2.38e-12 2.46e-12 2.54e-12 2.62e-12 2.77e-12 2.92e-12 3.07e-12 3.22e-12 3.38e-12 3.53e-12 3.69e-12 3.85e-12 4.02e-12 4.19e-12 
08 03 06  06 01 05 2.92e-12 2.83e-12 2.79e-12 2.76e-12 2.76e-12 2.78e-12 2.8e-12 2.82e-12 2.85e-12 2.87e-12 2.9e-12 2.96e-12 3.02e-12 3.09e-12 3.17e-12 3.24e-12 3.33e-12 3.41e-12 3.5e-12 3.59e-12 3.68e-12 
08 03 06  07 01 07 2.07e-12 2.04e-12 2.04e-12 2.05e-12 2.06e-12 2.08e-12 2.11e-12 2.14e-12 2.17e-12 2.21e-12 2.26e-12 2.35e-12 2.45e-12 2.55e-12 2.64e-12 2.74e-12 2.83e-12 2.91e-12 2.99e-12 3.07e-12 3.15e-12 
08 03 06  07 01 06 5.68e-12 5.57e-12 5.57e-12 5.68e-12 5.85e-12 6.04e-12 6.22e-12 6.4e-12 6.57e-12 6.74e-12 6.9e-12 7.2e-12 7.49e-12 7.77e-12 8.04e-12 8.31e-12 8.57e-12 8.84e-12 9.09e-12 9.35e-12 9.6e-12 
08 03 06  08 01 08 4.78e-12 4.68e-12 4.66e-12 4.7e-12 4.81e-12 4.95e-12 5.11e-12 5.28e-12 5.45e-12 5.63e-12 5.79e-12 6.12e-12 6.42e-12 6.7e-12 6.96e-12 7.2e-12 7.43e-12 7.63e-12 7.82e-12 8e-12 8.16e-12 
08 03 06  08 01 07 2.99e-12 2.99e-12 3.04e-12 3.2e-12 3.38e-12 3.57e-12 3.75e-12 3.94e-12 4.12e-12 4.29e-12 4.47e-12 4.8e-12 5.13e-12 5.44e-12 5.74e-12 6.03e-12 6.31e-12 6.59e-12 6.86e-12 7.12e-12 7.39e-12 
08 03 06  09 01 09 8.1e-12 7.98e-12 7.98e-12 8.1e-12 8.29e-12 8.51e-12 8.72e-12 8.94e-12 9.14e-12 9.34e-12 9.52e-12 9.87e-12 1.02e-11 1.05e-11 1.08e-11 1.11e-11 1.13e-11 1.16e-11 1.19e-11 1.21e-11 1.23e-11 
08 03 06  09 01 08 2.86e-12 2.88e-12 2.94e-12 3.09e-12 3.25e-12 3.4e-12 3.55e-12 3.7e-12 3.83e-12 3.96e-12 4.08e-12 4.31e-12 4.51e-12 4.69e-12 4.85e-12 5e-12 5.14e-12 5.27e-12 5.38e-12 5.49e-12 5.59e-12 
08 03 06  10 01 10 6.13e-12 5.99e-12 5.92e-12 5.92e-12 6.02e-12 6.17e-12 6.35e-12 6.54e-12 6.73e-12 6.92e-12 7.11e-12 7.46e-12 7.8e-12 8.11e-12 8.41e-12 8.69e-12 8.96e-12 9.21e-12 9.45e-12 9.68e-12 9.89e-12 
08 03 06  10 01 09 5.97e-12 6e-12 6.07e-12 6.26e-12 6.47e-12 6.69e-12 6.9e-12 7.09e-12 7.27e-12 7.44e-12 7.6e-12 7.89e-12 8.15e-12 8.39e-12 8.61e-12 8.82e-12 9.01e-12 9.19e-12 9.37e-12 9.53e-12 9.69e-12 
08 03 06  11 01 11 2.61e-12 3.07e-12 3.37e-12 3.82e-12 4.16e-12 4.46e-12 4.71e-12 4.93e-12 5.13e-12 5.31e-12 5.49e-12 5.83e-12 6.17e-12 6.51e-12 6.86e-12 7.21e-12 7.58e-12 7.96e-12 8.35e-12 8.74e-12 9.15e-12 
08 03 06  11 01 10 1.44e-12 2.66e-12 3.6e-12 4.83e-12 5.54e-12 5.99e-12 6.29e-12 6.52e-12 6.69e-12 6.83e-12 6.95e-12 7.15e-12 7.32e-12 7.47e-12 7.6e-12 7.73e-12 7.85e-12 7.96e-12 8.07e-12 8.17e-12 8.26e-12 
08 03 06  12 01 12 2.96e-14 1.24e-13 2.56e-13 5.4e-13 8.08e-13 1.06e-12 1.3e-12 1.54e-12 1.78e-12 2.01e-12 2.24e-12 2.68e-12 3.1e-12 3.49e-12 3.86e-12 4.21e-12 4.53e-12 4.83e-12 5.11e-12 5.38e-12 5.62e-12 
08 03 06  12 01 11 2.74e-14 2.17e-13 6.14e-13 1.74e-12 2.92e-12 3.96e-12 4.85e-12 5.59e-12 6.22e-12 6.76e-12 7.23e-12 8.04e-12 8.71e-12 9.31e-12 9.86e-12 1.04e-11 1.08e-11 1.13e-11 1.18e-11 1.22e-11 1.26e-11 
08 03 06  03 03 01 2.69e-12 2.75e-12 2.86e-12 3.09e-12 3.32e-12 3.52e-12 3.71e-12 3.88e-12 4.04e-12 4.2e-12 4.36e-12 4.67e-12 4.98e-12 5.31e-12 5.64e-12 5.98e-12 6.33e-12 6.69e-12 7.06e-12 7.44e-12 7.83e-12 
08 03 06  03 03 00 1.45e-12 1.44e-12 1.45e-12 1.5e-12 1.56e-12 1.62e-12 1.68e-12 1.74e-12 1.8e-12 1.86e-12 1.92e-12 2.03e-12 2.14e-12 2.24e-12 2.35e-12 2.45e-12 2.56e-12 2.66e-12 2.77e-12 2.88e-12 2.99e-12 
08 03 06  04 03 02 2.98e-12 2.9e-12 2.88e-12 2.91e-12 2.97e-12 3.05e-12 3.14e-12 3.24e-12 3.35e-12 3.46e-12 3.57e-12 3.8e-12 4.05e-12 4.3e-12 4.57e-12 4.85e-12 5.15e-12 5.45e-12 5.76e-12 6.08e-12 6.41e-12 
08 03 06  04 03 01 8.07e-12 7.94e-12 7.91e-12 7.9e-12 7.9e-12 7.92e-12 7.97e-12 8.04e-12 8.14e-12 8.25e-12 8.38e-12 8.66e-12 8.95e-12 9.22e-12 9.47e-12 9.7e-12 9.89e-12 1.01e-11 1.02e-11 1.03e-11 1.03e-11 
08 03 06  05 03 03 7.18e-12 7.13e-12 7.19e-12 7.43e-12 7.72e-12 8.02e-12 8.31e-12 8.6e-12 8.87e-12 9.14e-12 9.39e-12 9.87e-12 1.03e-11 1.08e-11 1.12e-11 1.15e-11 1.19e-11 1.22e-11 1.26e-11 1.29e-11 1.32e-11 
08 03 06  05 03 02 3.79e-12 3.67e-12 3.64e-12 3.71e-12 3.87e-12 4.07e-12 4.28e-12 4.5e-12 4.71e-12 4.93e-12 5.16e-12 5.61e-12 6.08e-12 6.58e-12 7.1e-12 7.65e-12 8.22e-12 8.81e-12 9.42e-12 1.01e-11 1.07e-11 
08 03 06  06 03 04 3.1e-12 3.1e-12 3.18e-12 3.52e-12 4.04e-12 4.68e-12 5.38e-12 6.1e-12 6.83e-12 7.53e-12 8.22e-12 9.49e-12 1.06e-11 1.16e-11 1.25e-11 1.34e-11 1.41e-11 1.47e-11 1.53e-11 1.58e-11 1.63e-11 
08 03 06  06 03 03 8.93e-12 8.84e-12 8.87e-12 9.11e-12 9.42e-12 9.76e-12 1.01e-11 1.04e-11 1.08e-11 1.11e-11 1.14e-11 1.19e-11 1.24e-11 1.28e-11 1.32e-11 1.35e-11 1.37e-11 1.39e-11 1.4e-11 1.41e-11 1.41e-11 
08 03 06  07 03 05 4.85e-11 4.87e-11 4.91e-11 4.97e-11 5.01e-11 5.04e-11 5.05e-11 5.06e-11 5.07e-11 5.07e-11 5.07e-11 5.08e-11 5.08e-11 5.09e-11 5.1e-11 5.1e-11 5.1e-11 5.1e-11 5.1e-11 5.09e-11 5.08e-11 
08 03 06  07 03 04 5.85e-12 5.95e-12 6.12e-12 6.59e-12 7.17e-12 7.8e-12 8.45e-12 9.08e-12 9.69e-12 1.03e-11 1.08e-11 1.18e-11 1.27e-11 1.35e-11 1.42e-11 1.49e-11 1.55e-11 1.6e-11 1.65e-11 1.7e-11 1.74e-11 
08 03 06  08 03 06 0 0 0 0 0 0 0 0 0 0 0 0 0 0 0 0 0 0 0 0 0 
08 03 06  08 03 05 2.24e-11 2.35e-11 2.38e-11 2.37e-11 2.35e-11 2.34e-11 2.32e-11 2.32e-11 2.31e-11 2.31e-11 2.31e-11 2.31e-11 2.32e-11 2.33e-11 2.33e-11 2.33e-11 2.33e-11 2.33e-11 2.32e-11 2.31e-11 2.29e-11 
08 03 06  09 03 07 2.51e-12 7.12e-12 1.2e-11 2.03e-11 2.65e-11 3.1e-11 3.43e-11 3.7e-11 3.9e-11 4.07e-11 4.21e-11 4.43e-11 4.59e-11 4.72e-11 4.82e-11 4.91e-11 4.97e-11 5.02e-11 5.06e-11 5.1e-11 5.11e-11 
08 03 06  09 03 06 1.91e-13 5.64e-13 9.93e-13 1.85e-12 2.66e-12 3.46e-12 4.24e-12 5e-12 5.73e-12 6.45e-12 7.13e-12 8.42e-12 9.55e-12 1.06e-11 1.15e-11 1.24e-11 1.32e-11 1.39e-11 1.46e-11 1.52e-11 1.57e-11 
08 03 06  10 03 08 3.96e-15 3.77e-14 1.18e-13 3.95e-13 7.78e-13 1.25e-12 1.8e-12 2.4e-12 3.05e-12 3.72e-12 4.42e-12 5.82e-12 7.2e-12 8.48e-12 9.74e-12 1.1e-11 1.22e-11 1.32e-11 1.42e-11 1.51e-11 1.6e-11 
08 03 06  10 03 07 1.62e-14 1.52e-13 4.65e-13 1.41e-12 2.44e-12 3.41e-12 4.29e-12 5.12e-12 5.82e-12 6.5e-12 7.12e-12 8.31e-12 9.38e-12 1.04e-11 1.13e-11 1.21e-11 1.3e-11 1.38e-11 1.45e-11 1.52e-11 1.58e-11 
08 03 05  01 01 01 1.4e-13 1.38e-13 1.39e-13 1.45e-13 1.52e-13 1.59e-13 1.66e-13 1.72e-13 1.78e-13 1.84e-13 1.89e-13 2e-13 2.1e-13 2.2e-13 2.3e-13 2.4e-13 2.5e-13 2.61e-13 2.71e-13 2.82e-13 2.93e-13 
08 03 05  01 01 00 2.17e-13 2.17e-13 2.23e-13 2.39e-13 2.56e-13 2.74e-13 2.91e-13 3.08e-13 3.25e-13 3.42e-13 3.59e-13 3.92e-13 4.25e-13 4.58e-13 4.9e-13 5.22e-13 5.53e-13 5.83e-13 6.14e-13 6.44e-13 6.73e-13 
08 03 05  02 01 02 6.53e-13 6.51e-13 6.6e-13 6.83e-13 7.04e-13 7.22e-13 7.4e-13 7.57e-13 7.74e-13 7.92e-13 8.09e-13 8.44e-13 8.77e-13 9.08e-13 9.37e-13 9.63e-13 9.86e-13 1.01e-12 1.03e-12 1.04e-12 1.05e-12 
08 03 05  02 01 01 1.32e-12 1.32e-12 1.34e-12 1.39e-12 1.44e-12 1.48e-12 1.51e-12 1.54e-12 1.56e-12 1.58e-12 1.61e-12 1.65e-12 1.7e-12 1.74e-12 1.78e-12 1.82e-12 1.86e-12 1.89e-12 1.93e-12 1.96e-12 1.98e-12 
08 03 05  03 01 03 9.5e-13 9.32e-13 9.33e-13 9.54e-13 9.82e-13 1.01e-12 1.04e-12 1.06e-12 1.08e-12 1.1e-12 1.12e-12 1.15e-12 1.18e-12 1.21e-12 1.23e-12 1.26e-12 1.29e-12 1.31e-12 1.34e-12 1.37e-12 1.39e-12 
08 03 05  03 01 02 2.48e-12 2.43e-12 2.43e-12 2.45e-12 2.49e-12 2.53e-12 2.57e-12 2.61e-12 2.64e-12 2.68e-12 2.72e-12 2.8e-12 2.88e-12 2.96e-12 3.04e-12 3.12e-12 3.2e-12 3.28e-12 3.36e-12 3.44e-12 3.52e-12 
08 03 05  04 01 04 9.66e-13 9.39e-13 9.34e-13 9.46e-13 9.67e-13 9.9e-13 1.01e-12 1.03e-12 1.05e-12 1.07e-12 1.09e-12 1.13e-12 1.16e-12 1.19e-12 1.21e-12 1.24e-12 1.26e-12 1.29e-12 1.31e-12 1.33e-12 1.35e-12 
08 03 05  04 01 03 4.19e-12 4.09e-12 4.07e-12 4.1e-12 4.15e-12 4.22e-12 4.28e-12 4.35e-12 4.42e-12 4.49e-12 4.56e-12 4.69e-12 4.83e-12 4.96e-12 5.1e-12 5.24e-12 5.37e-12 5.51e-12 5.66e-12 5.8e-12 5.94e-12 
08 03 05  05 01 05 2.17e-12 2.18e-12 2.22e-12 2.33e-12 2.44e-12 2.53e-12 2.61e-12 2.67e-12 2.73e-12 2.79e-12 2.83e-12 2.92e-12 2.99e-12 3.05e-12 3.1e-12 3.14e-12 3.17e-12 3.21e-12 3.23e-12 3.25e-12 3.27e-12 
08 03 05  05 01 04 3.35e-12 3.22e-12 3.15e-12 3.08e-12 3.06e-12 3.05e-12 3.06e-12 3.07e-12 3.09e-12 3.12e-12 3.15e-12 3.21e-12 3.29e-12 3.38e-12 3.47e-12 3.58e-12 3.69e-12 3.8e-12 3.92e-12 4.05e-12 4.18e-12 
08 03 05  06 01 06 4.4e-12 4.35e-12 4.36e-12 4.45e-12 4.55e-12 4.65e-12 4.74e-12 4.82e-12 4.9e-12 4.98e-12 5.05e-12 5.19e-12 5.32e-12 5.44e-12 5.56e-12 5.67e-12 5.79e-12 5.89e-12 6e-12 6.1e-12 6.2e-12 
08 03 05  06 01 05 3.42e-12 3.36e-12 3.36e-12 3.42e-12 3.5e-12 3.59e-12 3.67e-12 3.75e-12 3.82e-12 3.89e-12 3.96e-12 4.09e-12 4.21e-12 4.33e-12 4.45e-12 4.56e-12 4.67e-12 4.78e-12 4.88e-12 4.99e-12 5.09e-12 
08 03 05  07 01 07 6.17e-12 5.97e-12 5.89e-12 5.89e-12 5.99e-12 6.14e-12 6.31e-12 6.5e-12 6.68e-12 6.86e-12 7.03e-12 7.36e-12 7.66e-12 7.93e-12 8.19e-12 8.43e-12 8.65e-12 8.86e-12 9.05e-12 9.23e-12 9.4e-12 
08 03 05  07 01 06 2.37e-12 2.31e-12 2.28e-12 2.26e-12 2.25e-12 2.24e-12 2.24e-12 2.24e-12 2.25e-12 2.26e-12 2.27e-12 2.31e-12 2.35e-12 2.39e-12 2.44e-12 2.49e-12 2.53e-12 2.57e-12 2.61e-12 2.65e-12 2.69e-12 
08 03 05  08 01 08 6.69e-12 6.38e-12 6.19e-12 6.01e-12 5.94e-12 5.94e-12 5.98e-12 6.04e-12 6.11e-12 6.19e-12 6.28e-12 6.46e-12 6.65e-12 6.83e-12 7.01e-12 7.18e-12 7.34e-12 7.5e-12 7.65e-12 7.8e-12 7.94e-12 
08 03 05  08 01 07 5.14e-12 4.88e-12 4.73e-12 4.58e-12 4.56e-12 4.61e-12 4.7e-12 4.82e-12 4.95e-12 5.08e-12 5.22e-12 5.49e-12 5.76e-12 6.02e-12 6.27e-12 6.51e-12 6.74e-12 6.96e-12 7.18e-12 7.39e-12 7.59e-12 
08 03 05  09 01 09 3.42e-12 3.19e-12 3.02e-12 2.8e-12 2.67e-12 2.61e-12 2.6e-12 2.61e-12 2.64e-12 2.69e-12 2.75e-12 2.89e-12 3.04e-12 3.22e-12 3.39e-12 3.58e-12 3.77e-12 3.96e-12 4.15e-12 4.34e-12 4.54e-12 
08 03 05  09 01 08 3.16e-12 3.19e-12 3.28e-12 3.55e-12 3.87e-12 4.2e-12 4.51e-12 4.81e-12 5.08e-12 5.33e-12 5.56e-12 5.97e-12 6.34e-12 6.67e-12 6.97e-12 7.25e-12 7.51e-12 7.75e-12 7.97e-12 8.19e-12 8.39e-12 
08 03 05  10 01 10 2.63e-12 2.69e-12 2.77e-12 2.96e-12 3.17e-12 3.38e-12 3.58e-12 3.79e-12 3.98e-12 4.17e-12 4.35e-12 4.7e-12 5.02e-12 5.33e-12 5.63e-12 5.91e-12 6.18e-12 6.44e-12 6.7e-12 6.94e-12 7.18e-12 
08 03 05  10 01 09 7.42e-12 7.09e-12 6.83e-12 6.5e-12 6.34e-12 6.28e-12 6.27e-12 6.29e-12 6.33e-12 6.38e-12 6.44e-12 6.57e-12 6.71e-12 6.85e-12 6.98e-12 7.12e-12 7.25e-12 7.37e-12 7.49e-12 7.61e-12 7.72e-12 
08 03 05  11 01 11 6.31e-12 6.82e-12 6.9e-12 6.76e-12 6.61e-12 6.52e-12 6.48e-12 6.49e-12 6.52e-12 6.59e-12 6.67e-12 6.86e-12 7.08e-12 7.31e-12 7.53e-12 7.74e-12 7.95e-12 8.14e-12 8.32e-12 8.48e-12 8.63e-12 
08 03 05  11 01 10 1.96e-12 3.66e-12 5.01e-12 6.85e-12 7.97e-12 8.67e-12 9.14e-12 9.47e-12 9.71e-12 9.89e-12 1e-11 1.03e-11 1.04e-11 1.06e-11 1.07e-11 1.09e-11 1.1e-11 1.12e-11 1.13e-11 1.15e-11 1.16e-11 
08 03 05  12 01 12 8.21e-14 3.49e-13 7.35e-13 1.59e-12 2.37e-12 3.05e-12 3.63e-12 4.12e-12 4.55e-12 4.94e-12 5.29e-12 5.9e-12 6.45e-12 6.95e-12 7.42e-12 7.87e-12 8.31e-12 8.73e-12 9.14e-12 9.55e-12 9.95e-12 
08 03 05  12 01 11 1.88e-14 1.48e-13 4.17e-13 1.17e-12 1.97e-12 2.69e-12 3.31e-12 3.84e-12 4.31e-12 4.72e-12 5.1e-12 5.77e-12 6.37e-12 6.93e-12 7.46e-12 7.99e-12 8.5e-12 9e-12 9.51e-12 1e-11 1.05e-11 
08 03 05  03 03 01 2.53e-12 2.5e-12 2.5e-12 2.55e-12 2.62e-12 2.69e-12 2.76e-12 2.83e-12 2.9e-12 2.96e-12 3.03e-12 3.15e-12 3.27e-12 3.4e-12 3.53e-12 3.66e-12 3.8e-12 3.94e-12 4.09e-12 4.24e-12 4.39e-12 
08 03 05  03 03 00 4.01e-12 4.02e-12 4.08e-12 4.25e-12 4.41e-12 4.56e-12 4.7e-12 4.83e-12 4.96e-12 5.09e-12 5.22e-12 5.49e-12 5.77e-12 6.05e-12 6.34e-12 6.64e-12 6.93e-12 7.23e-12 7.53e-12 7.82e-12 8.12e-12 
08 03 05  04 03 02 6.77e-12 6.7e-12 6.73e-12 6.84e-12 6.98e-12 7.14e-12 7.3e-12 7.48e-12 7.67e-12 7.87e-12 8.07e-12 8.48e-12 8.88e-12 9.26e-12 9.62e-12 9.96e-12 1.03e-11 1.06e-11 1.08e-11 1.11e-11 1.13e-11 
08 03 05  04 03 01 2.2e-12 2.19e-12 2.23e-12 2.36e-12 2.53e-12 2.71e-12 2.88e-12 3.06e-12 3.23e-12 3.4e-12 3.57e-12 3.9e-12 4.22e-12 4.54e-12 4.87e-12 5.21e-12 5.55e-12 5.89e-12 6.25e-12 6.61e-12 6.99e-12 
08 03 05  05 03 03 3.32e-12 3.19e-12 3.12e-12 3.13e-12 3.24e-12 3.42e-12 3.62e-12 3.84e-12 4.07e-12 4.31e-12 4.56e-12 5.05e-12 5.56e-12 6.08e-12 6.61e-12 7.15e-12 7.71e-12 8.29e-12 8.88e-12 9.48e-12 1.01e-11 
08 03 05  05 03 02 6.97e-12 6.95e-12 7.05e-12 7.37e-12 7.73e-12 8.08e-12 8.41e-12 8.72e-12 9.01e-12 9.29e-12 9.55e-12 1.01e-11 1.05e-11 1.09e-11 1.14e-11 1.17e-11 1.21e-11 1.25e-11 1.28e-11 1.31e-11 1.34e-11 
08 03 05  06 03 04 8.62e-12 8.44e-12 8.4e-12 8.51e-12 8.71e-12 8.97e-12 9.25e-12 9.53e-12 9.81e-12 1.01e-11 1.03e-11 1.08e-11 1.12e-11 1.16e-11 1.19e-11 1.22e-11 1.24e-11 1.26e-11 1.27e-11 1.28e-11 1.29e-11 
08 03 05  06 03 03 4.33e-12 4.26e-12 4.27e-12 4.51e-12 4.95e-12 5.53e-12 6.19e-12 6.9e-12 7.62e-12 8.35e-12 9.05e-12 1.04e-11 1.16e-11 1.27e-11 1.37e-11 1.46e-11 1.54e-11 1.61e-11 1.67e-11 1.73e-11 1.78e-11 
08 03 05  07 03 05 4.72e-12 4.83e-12 5e-12 5.48e-12 6.09e-12 6.78e-12 7.49e-12 8.2e-12 8.9e-12 9.57e-12 1.02e-11 1.14e-11 1.25e-11 1.35e-11 1.44e-11 1.52e-11 1.6e-11 1.67e-11 1.73e-11 1.8e-11 1.86e-11 
08 03 05  07 03 04 4.8e-11 4.84e-11 4.88e-11 4.95e-11 4.99e-11 5.01e-11 5.01e-11 5.01e-11 5.01e-11 5e-11 5e-11 5e-11 5e-11 5e-11 5.01e-11 5.02e-11 5.03e-11 5.04e-11 5.04e-11 5.04e-11 5.04e-11 
08 03 05  08 03 06 2.24e-11 2.35e-11 2.38e-11 2.37e-11 2.35e-11 2.34e-11 2.32e-11 2.32e-11 2.31e-11 2.31e-11 2.31e-11 2.31e-11 2.32e-11 2.33e-11 2.33e-11 2.33e-11 2.33e-11 2.33e-11 2.32e-11 2.31e-11 2.29e-11 
08 03 05  08 03 05 0 0 0 0 0 0 0 0 0 0 0 0 0 0 0 0 0 0 0 0 0 
08 03 05  09 03 07 2.68e-13 7.79e-13 1.35e-12 2.45e-12 3.44e-12 4.37e-12 5.26e-12 6.11e-12 6.93e-12 7.72e-12 8.49e-12 9.89e-12 1.11e-11 1.22e-11 1.32e-11 1.41e-11 1.5e-11 1.58e-11 1.64e-11 1.71e-11 1.77e-11 
08 03 05  09 03 06 2.6e-12 7.35e-12 1.24e-11 2.08e-11 2.71e-11 3.16e-11 3.5e-11 3.77e-11 3.98e-11 4.15e-11 4.28e-11 4.51e-11 4.67e-11 4.8e-11 4.92e-11 5.01e-11 5.08e-11 5.13e-11 5.18e-11 5.21e-11 5.23e-11 
08 03 05  10 03 08 1.45e-14 1.37e-13 4.24e-13 1.31e-12 2.33e-12 3.34e-12 4.25e-12 5.12e-12 5.87e-12 6.62e-12 7.32e-12 8.6e-12 9.76e-12 1.08e-11 1.18e-11 1.27e-11 1.35e-11 1.43e-11 1.51e-11 1.58e-11 1.64e-11 
08 03 05  10 03 07 4.89e-15 4.66e-14 1.45e-13 4.73e-13 9.07e-13 1.42e-12 1.98e-12 2.59e-12 3.23e-12 3.89e-12 4.56e-12 5.9e-12 7.23e-12 8.48e-12 9.74e-12 1.09e-11 1.21e-11 1.31e-11 1.42e-11 1.51e-11 1.61e-11 
09 03 07  01 01 01 9.88e-13 9.94e-13 1.01e-12 1.05e-12 1.09e-12 1.13e-12 1.15e-12 1.17e-12 1.19e-12 1.2e-12 1.22e-12 1.23e-12 1.25e-12 1.26e-12 1.27e-12 1.28e-12 1.29e-12 1.3e-12 1.31e-12 1.31e-12 1.32e-12 
09 03 07  01 01 00 8.03e-13 8.22e-13 8.5e-13 9.09e-13 9.6e-13 1e-12 1.03e-12 1.06e-12 1.08e-12 1.1e-12 1.11e-12 1.13e-12 1.14e-12 1.16e-12 1.17e-12 1.17e-12 1.18e-12 1.19e-12 1.2e-12 1.21e-12 1.21e-12 
09 03 07  02 01 02 1.2e-12 1.17e-12 1.15e-12 1.13e-12 1.12e-12 1.11e-12 1.11e-12 1.1e-12 1.11e-12 1.11e-12 1.12e-12 1.13e-12 1.16e-12 1.18e-12 1.22e-12 1.25e-12 1.3e-12 1.34e-12 1.39e-12 1.44e-12 1.49e-12 
09 03 07  02 01 01 1.27e-12 1.29e-12 1.33e-12 1.4e-12 1.47e-12 1.52e-12 1.56e-12 1.59e-12 1.62e-12 1.63e-12 1.65e-12 1.67e-12 1.69e-12 1.71e-12 1.72e-12 1.74e-12 1.75e-12 1.76e-12 1.78e-12 1.79e-12 1.8e-12 
09 03 07  03 01 03 1.77e-12 1.77e-12 1.79e-12 1.83e-12 1.87e-12 1.9e-12 1.92e-12 1.94e-12 1.96e-12 1.98e-12 2e-12 2.05e-12 2.1e-12 2.16e-12 2.22e-12 2.29e-12 2.37e-12 2.44e-12 2.52e-12 2.6e-12 2.69e-12 
09 03 07  03 01 02 1.13e-12 1.13e-12 1.14e-12 1.16e-12 1.18e-12 1.19e-12 1.2e-12 1.21e-12 1.21e-12 1.22e-12 1.22e-12 1.23e-12 1.24e-12 1.25e-12 1.26e-12 1.28e-12 1.29e-12 1.3e-12 1.32e-12 1.33e-12 1.34e-12 
09 03 07  04 01 04 2.17e-12 2.19e-12 2.22e-12 2.3e-12 2.37e-12 2.43e-12 2.48e-12 2.54e-12 2.59e-12 2.66e-12 2.72e-12 2.87e-12 3.02e-12 3.19e-12 3.36e-12 3.54e-12 3.72e-12 3.9e-12 4.09e-12 4.28e-12 4.47e-12 
09 03 07  04 01 03 1.13e-12 1.11e-12 1.11e-12 1.1e-12 1.11e-12 1.11e-12 1.11e-12 1.12e-12 1.12e-12 1.12e-12 1.13e-12 1.14e-12 1.16e-12 1.18e-12 1.2e-12 1.22e-12 1.25e-12 1.28e-12 1.31e-12 1.34e-12 1.38e-12 
09 03 07  05 01 05 2.94e-12 2.9e-12 2.91e-12 2.94e-12 3e-12 3.07e-12 3.15e-12 3.23e-12 3.32e-12 3.41e-12 3.51e-12 3.69e-12 3.88e-12 4.06e-12 4.23e-12 4.4e-12 4.57e-12 4.73e-12 4.88e-12 5.03e-12 5.18e-12 
09 03 07  05 01 04 1.44e-12 1.38e-12 1.35e-12 1.31e-12 1.28e-12 1.26e-12 1.25e-12 1.25e-12 1.25e-12 1.25e-12 1.26e-12 1.28e-12 1.32e-12 1.36e-12 1.41e-12 1.47e-12 1.53e-12 1.6e-12 1.67e-12 1.74e-12 1.82e-12 
09 03 07  06 01 06 2.97e-12 2.88e-12 2.84e-12 2.78e-12 2.77e-12 2.78e-12 2.82e-12 2.87e-12 2.93e-12 3e-12 3.07e-12 3.22e-12 3.37e-12 3.52e-12 3.67e-12 3.82e-12 3.96e-12 4.1e-12 4.23e-12 4.36e-12 4.49e-12 
09 03 07  06 01 05 2.57e-12 2.46e-12 2.4e-12 2.34e-12 2.32e-12 2.32e-12 2.33e-12 2.36e-12 2.4e-12 2.44e-12 2.48e-12 2.57e-12 2.67e-12 2.77e-12 2.88e-12 2.99e-12 3.1e-12 3.21e-12 3.32e-12 3.43e-12 3.55e-12 
09 03 07  07 01 07 2.02e-12 1.98e-12 1.97e-12 1.98e-12 2e-12 2.04e-12 2.09e-12 2.13e-12 2.19e-12 2.24e-12 2.29e-12 2.39e-12 2.49e-12 2.58e-12 2.68e-12 2.77e-12 2.86e-12 2.95e-12 3.04e-12 3.13e-12 3.21e-12 
09 03 07  07 01 06 4.26e-12 4.05e-12 3.91e-12 3.74e-12 3.65e-12 3.6e-12 3.58e-12 3.58e-12 3.58e-12 3.59e-12 3.6e-12 3.63e-12 3.68e-12 3.73e-12 3.8e-12 3.87e-12 3.94e-12 4.02e-12 4.1e-12 4.19e-12 4.28e-12 
09 03 07  08 01 08 2.5e-12 2.51e-12 2.54e-12 2.58e-12 2.61e-12 2.64e-12 2.66e-12 2.67e-12 2.69e-12 2.71e-12 2.74e-12 2.78e-12 2.83e-12 2.89e-12 2.95e-12 3e-12 3.06e-12 3.12e-12 3.18e-12 3.24e-12 3.29e-12 
09 03 07  08 01 07 6.81e-12 6.56e-12 6.45e-12 6.42e-12 6.49e-12 6.62e-12 6.77e-12 6.92e-12 7.08e-12 7.24e-12 7.39e-12 7.69e-12 7.98e-12 8.26e-12 8.53e-12 8.78e-12 9.03e-12 9.27e-12 9.5e-12 9.73e-12 9.95e-12 
09 03 07  09 01 09 5.65e-12 5.55e-12 5.52e-12 5.54e-12 5.62e-12 5.74e-12 5.88e-12 6.03e-12 6.19e-12 6.36e-12 6.52e-12 6.83e-12 7.13e-12 7.41e-12 7.68e-12 7.93e-12 8.16e-12 8.39e-12 8.6e-12 8.79e-12 8.98e-12 
09 03 07  09 01 08 4.21e-12 4.08e-12 4.03e-12 4.02e-12 4.06e-12 4.11e-12 4.17e-12 4.24e-12 4.32e-12 4.4e-12 4.48e-12 4.66e-12 4.86e-12 5.08e-12 5.32e-12 5.57e-12 5.83e-12 6.1e-12 6.38e-12 6.67e-12 6.97e-12 
09 03 07  10 01 10 1.02e-11 9.95e-12 9.84e-12 9.76e-12 9.79e-12 9.89e-12 1e-11 1.02e-11 1.04e-11 1.05e-11 1.07e-11 1.11e-11 1.14e-11 1.17e-11 1.2e-11 1.23e-11 1.26e-11 1.28e-11 1.3e-11 1.32e-11 1.34e-11 
09 03 07  10 01 09 3.07e-12 3.01e-12 3e-12 3.08e-12 3.2e-12 3.33e-12 3.46e-12 3.59e-12 3.71e-12 3.83e-12 3.95e-12 4.18e-12 4.39e-12 4.59e-12 4.79e-12 4.97e-12 5.14e-12 5.3e-12 5.46e-12 5.61e-12 5.75e-12 
09 03 07  11 01 11 7.88e-12 7.6e-12 7.39e-12 7.12e-12 7e-12 6.98e-12 7.03e-12 7.13e-12 7.26e-12 7.42e-12 7.59e-12 7.95e-12 8.32e-12 8.7e-12 9.07e-12 9.44e-12 9.79e-12 1.01e-11 1.05e-11 1.08e-11 1.11e-11 
09 03 07  11 01 10 8.76e-12 8.54e-12 8.36e-12 8.13e-12 8.02e-12 7.99e-12 8.01e-12 8.05e-12 8.11e-12 8.18e-12 8.26e-12 8.44e-12 8.63e-12 8.83e-12 9.02e-12 9.22e-12 9.41e-12 9.6e-12 9.79e-12 9.96e-12 1.01e-11 
09 03 07  12 01 12 1.12e-12 1.79e-12 2.31e-12 3.09e-12 3.68e-12 4.17e-12 4.59e-12 4.97e-12 5.31e-12 5.62e-12 5.9e-12 6.42e-12 6.88e-12 7.29e-12 7.66e-12 8.01e-12 8.34e-12 8.65e-12 8.94e-12 9.22e-12 9.49e-12 
09 03 07  12 01 11 5.5e-13 1.49e-12 2.43e-12 3.88e-12 4.84e-12 5.5e-12 5.98e-12 6.36e-12 6.67e-12 6.95e-12 7.2e-12 7.66e-12 8.1e-12 8.52e-12 8.93e-12 9.34e-12 9.75e-12 1.01e-11 1.05e-11 1.09e-11 1.13e-11 
09 03 07  03 03 01 8.15e-13 7.98e-13 7.97e-13 8.2e-13 8.58e-13 9.04e-13 9.51e-13 1e-12 1.05e-12 1.09e-12 1.14e-12 1.22e-12 1.29e-12 1.35e-12 1.41e-12 1.46e-12 1.51e-12 1.55e-12 1.59e-12 1.63e-12 1.66e-12 
09 03 07  03 03 00 1.47e-12 1.5e-12 1.56e-12 1.72e-12 1.89e-12 2.05e-12 2.2e-12 2.35e-12 2.5e-12 2.64e-12 2.78e-12 3.06e-12 3.34e-12 3.63e-12 3.92e-12 4.21e-12 4.51e-12 4.82e-12 5.14e-12 5.46e-12 5.79e-12 
09 03 07  04 03 02 4.13e-12 4.1e-12 4.14e-12 4.26e-12 4.4e-12 4.54e-12 4.68e-12 4.83e-12 4.98e-12 5.14e-12 5.31e-12 5.68e-12 6.07e-12 6.48e-12 6.92e-12 7.37e-12 7.83e-12 8.31e-12 8.8e-12 9.3e-12 9.82e-12 
09 03 07  04 03 01 2.33e-12 2.34e-12 2.39e-12 2.51e-12 2.65e-12 2.77e-12 2.89e-12 2.99e-12 3.09e-12 3.18e-12 3.27e-12 3.43e-12 3.59e-12 3.74e-12 3.9e-12 4.05e-12 4.2e-12 4.36e-12 4.52e-12 4.68e-12 4.84e-12 
09 03 07  05 03 03 3.46e-12 3.32e-12 3.23e-12 3.13e-12 3.1e-12 3.11e-12 3.15e-12 3.21e-12 3.29e-12 3.37e-12 3.47e-12 3.67e-12 3.89e-12 4.13e-12 4.37e-12 4.62e-12 4.88e-12 5.15e-12 5.42e-12 5.69e-12 5.97e-12 
09 03 07  05 03 02 7.87e-12 7.72e-12 7.67e-12 7.67e-12 7.72e-12 7.81e-12 7.94e-12 8.1e-12 8.29e-12 8.51e-12 8.74e-12 9.23e-12 9.75e-12 1.03e-11 1.08e-11 1.13e-11 1.18e-11 1.22e-11 1.27e-11 1.31e-11 1.36e-11 
09 03 07  06 03 04 7.06e-12 7.04e-12 7.12e-12 7.41e-12 7.74e-12 8.07e-12 8.39e-12 8.7e-12 8.99e-12 9.26e-12 9.53e-12 1e-11 1.05e-11 1.09e-11 1.13e-11 1.17e-11 1.21e-11 1.25e-11 1.28e-11 1.32e-11 1.35e-11 
09 03 07  06 03 03 3.39e-12 3.35e-12 3.37e-12 3.51e-12 3.73e-12 3.98e-12 4.24e-12 4.5e-12 4.77e-12 5.03e-12 5.3e-12 5.82e-12 6.34e-12 6.87e-12 7.41e-12 7.96e-12 8.53e-12 9.12e-12 9.72e-12 1.03e-11 1.1e-11 
09 03 07  07 03 05 2.33e-12 2.43e-12 2.59e-12 3.01e-12 3.59e-12 4.29e-12 5.07e-12 5.88e-12 6.7e-12 7.51e-12 8.31e-12 9.8e-12 1.12e-11 1.24e-11 1.35e-11 1.45e-11 1.53e-11 1.61e-11 1.68e-11 1.74e-11 1.8e-11 
09 03 07  07 03 04 8.81e-12 8.83e-12 8.94e-12 9.26e-12 9.61e-12 9.97e-12 1.03e-11 1.07e-11 1.1e-11 1.13e-11 1.16e-11 1.22e-11 1.27e-11 1.32e-11 1.37e-11 1.41e-11 1.44e-11 1.48e-11 1.5e-11 1.53e-11 1.55e-11 
09 03 07  08 03 06 5.2e-11 5.18e-11 5.18e-11 5.19e-11 5.2e-11 5.2e-11 5.19e-11 5.18e-11 5.17e-11 5.17e-11 5.16e-11 5.15e-11 5.14e-11 5.14e-11 5.14e-11 5.14e-11 5.13e-11 5.12e-11 5.11e-11 5.1e-11 5.08e-11 
09 03 07  08 03 05 5.57e-12 5.67e-12 5.83e-12 6.24e-12 6.75e-12 7.34e-12 7.95e-12 8.57e-12 9.19e-12 9.79e-12 1.04e-11 1.15e-11 1.24e-11 1.33e-11 1.41e-11 1.48e-11 1.55e-11 1.61e-11 1.66e-11 1.71e-11 1.76e-11 
09 03 07  09 03 07 0 0 0 0 0 0 0 0 0 0 0 0 0 0 0 0 0 0 0 0 0 
09 03 07  09 03 06 1.96e-11 2.05e-11 2.08e-11 2.09e-11 2.08e-11 2.07e-11 2.06e-11 2.06e-11 2.06e-11 2.06e-11 2.07e-11 2.08e-11 2.1e-11 2.12e-11 2.13e-11 2.15e-11 2.16e-11 2.17e-11 2.17e-11 2.17e-11 2.17e-11 
09 03 07  10 03 08 1.92e-12 6.3e-12 1.13e-11 2.01e-11 2.65e-11 3.12e-11 3.47e-11 3.74e-11 3.96e-11 4.13e-11 4.28e-11 4.52e-11 4.7e-11 4.85e-11 4.98e-11 5.09e-11 5.18e-11 5.25e-11 5.32e-11 5.38e-11 5.42e-11 
09 03 07  10 03 07 1.23e-13 4.15e-13 7.7e-13 1.48e-12 2.13e-12 2.75e-12 3.35e-12 3.93e-12 4.49e-12 5.05e-12 5.59e-12 6.62e-12 7.61e-12 8.56e-12 9.47e-12 1.03e-11 1.11e-11 1.19e-11 1.27e-11 1.35e-11 1.42e-11 
09 03 06  01 01 01 1.32e-13 1.28e-13 1.27e-13 1.27e-13 1.29e-13 1.34e-13 1.4e-13 1.47e-13 1.56e-13 1.66e-13 1.76e-13 2e-13 2.25e-13 2.51e-13 2.78e-13 3.05e-13 3.32e-13 3.6e-13 3.88e-13 4.16e-13 4.44e-13 
09 03 06  01 01 00 2.44e-13 2.36e-13 2.32e-13 2.27e-13 2.26e-13 2.25e-13 2.25e-13 2.27e-13 2.29e-13 2.32e-13 2.35e-13 2.44e-13 2.55e-13 2.68e-13 2.82e-13 2.97e-13 3.13e-13 3.31e-13 3.49e-13 3.67e-13 3.87e-13 
09 03 06  02 01 02 3.65e-13 3.73e-13 3.87e-13 4.21e-13 4.52e-13 4.78e-13 5e-13 5.19e-13 5.36e-13 5.51e-13 5.65e-13 5.92e-13 6.19e-13 6.46e-13 6.74e-13 7.04e-13 7.35e-13 7.67e-13 8e-13 8.34e-13 8.69e-13 
09 03 06  02 01 01 6.35e-13 6.41e-13 6.59e-13 7.05e-13 7.49e-13 7.9e-13 8.25e-13 8.58e-13 8.89e-13 9.19e-13 9.49e-13 1.01e-12 1.08e-12 1.15e-12 1.23e-12 1.31e-12 1.4e-12 1.49e-12 1.58e-12 1.68e-12 1.78e-12 
09 03 06  03 01 03 7.72e-13 7.64e-13 7.67e-13 7.83e-13 8.03e-13 8.24e-13 8.44e-13 8.65e-13 8.87e-13 9.08e-13 9.3e-13 9.71e-13 1.01e-12 1.05e-12 1.08e-12 1.11e-12 1.13e-12 1.16e-12 1.17e-12 1.19e-12 1.2e-12 
09 03 06  03 01 02 1.99e-12 1.99e-12 2.03e-12 2.12e-12 2.21e-12 2.29e-12 2.36e-12 2.42e-12 2.47e-12 2.52e-12 2.56e-12 2.65e-12 2.72e-12 2.8e-12 2.87e-12 2.94e-12 3e-12 3.07e-12 3.13e-12 3.2e-12 3.26e-12 
09 03 06  04 01 04 1.14e-12 1.12e-12 1.12e-12 1.13e-12 1.15e-12 1.18e-12 1.2e-12 1.22e-12 1.25e-12 1.27e-12 1.28e-12 1.31e-12 1.34e-12 1.36e-12 1.38e-12 1.39e-12 1.4e-12 1.41e-12 1.42e-12 1.43e-12 1.43e-12 
09 03 06  04 01 03 3.15e-12 3.09e-12 3.08e-12 3.1e-12 3.13e-12 3.18e-12 3.22e-12 3.26e-12 3.3e-12 3.35e-12 3.39e-12 3.49e-12 3.58e-12 3.68e-12 3.77e-12 3.87e-12 3.97e-12 4.06e-12 4.16e-12 4.26e-12 4.35e-12 
09 03 06  05 01 05 1.16e-12 1.16e-12 1.18e-12 1.24e-12 1.3e-12 1.35e-12 1.39e-12 1.42e-12 1.46e-12 1.49e-12 1.51e-12 1.56e-12 1.61e-12 1.66e-12 1.7e-12 1.75e-12 1.8e-12 1.86e-12 1.91e-12 1.97e-12 2.02e-12 
09 03 06  05 01 04 4.42e-12 4.36e-12 4.37e-12 4.43e-12 4.52e-12 4.61e-12 4.7e-12 4.79e-12 4.87e-12 4.95e-12 5.03e-12 5.17e-12 5.3e-12 5.42e-12 5.52e-12 5.62e-12 5.72e-12 5.8e-12 5.88e-12 5.95e-12 6.02e-12 
09 03 06  06 01 06 2.5e-12 2.52e-12 2.57e-12 2.7e-12 2.83e-12 2.95e-12 3.06e-12 3.16e-12 3.25e-12 3.33e-12 3.41e-12 3.55e-12 3.67e-12 3.79e-12 3.89e-12 3.99e-12 4.08e-12 4.16e-12 4.24e-12 4.31e-12 4.38e-12 
09 03 06  06 01 05 3.3e-12 3.25e-12 3.22e-12 3.21e-12 3.21e-12 3.22e-12 3.24e-12 3.25e-12 3.27e-12 3.29e-12 3.32e-12 3.37e-12 3.44e-12 3.52e-12 3.61e-12 3.7e-12 3.81e-12 3.93e-12 4.05e-12 4.19e-12 4.33e-12 
09 03 06  07 01 07 4.95e-12 4.9e-12 4.91e-12 4.97e-12 5.05e-12 5.13e-12 5.22e-12 5.31e-12 5.41e-12 5.5e-12 5.6e-12 5.78e-12 5.94e-12 6.1e-12 6.23e-12 6.35e-12 6.46e-12 6.55e-12 6.63e-12 6.69e-12 6.74e-12 
09 03 06  07 01 06 2.56e-12 2.6e-12 2.67e-12 2.83e-12 2.97e-12 3.09e-12 3.2e-12 3.3e-12 3.38e-12 3.46e-12 3.54e-12 3.7e-12 3.85e-12 4.01e-12 4.18e-12 4.35e-12 4.53e-12 4.72e-12 4.92e-12 5.12e-12 5.33e-12 
09 03 06  08 01 08 6.68e-12 6.45e-12 6.32e-12 6.21e-12 6.21e-12 6.28e-12 6.4e-12 6.55e-12 6.71e-12 6.89e-12 7.07e-12 7.43e-12 7.77e-12 8.1e-12 8.39e-12 8.67e-12 8.92e-12 9.15e-12 9.36e-12 9.55e-12 9.73e-12 
09 03 06  08 01 07 2.28e-12 2.26e-12 2.26e-12 2.26e-12 2.27e-12 2.29e-12 2.31e-12 2.34e-12 2.37e-12 2.41e-12 2.45e-12 2.55e-12 2.66e-12 2.77e-12 2.89e-12 3.02e-12 3.14e-12 3.27e-12 3.4e-12 3.52e-12 3.65e-12 
09 03 06  09 01 09 6.57e-12 6.38e-12 6.26e-12 6.11e-12 6.02e-12 5.99e-12 5.99e-12 6.01e-12 6.06e-12 6.12e-12 6.19e-12 6.35e-12 6.53e-12 6.72e-12 6.92e-12 7.13e-12 7.35e-12 7.56e-12 7.78e-12 8.01e-12 8.23e-12 
09 03 06  09 01 08 5.3e-12 5.09e-12 4.97e-12 4.86e-12 4.86e-12 4.93e-12 5.04e-12 5.18e-12 5.34e-12 5.51e-12 5.68e-12 6.01e-12 6.33e-12 6.62e-12 6.9e-12 7.14e-12 7.37e-12 7.58e-12 7.77e-12 7.94e-12 8.09e-12 
09 03 06  10 01 10 3.59e-12 3.4e-12 3.25e-12 3.01e-12 2.85e-12 2.75e-12 2.68e-12 2.65e-12 2.64e-12 2.65e-12 2.67e-12 2.74e-12 2.84e-12 2.95e-12 3.07e-12 3.2e-12 3.34e-12 3.47e-12 3.61e-12 3.75e-12 3.89e-12 
09 03 06  10 01 09 4.84e-12 4.72e-12 4.68e-12 4.76e-12 4.95e-12 5.19e-12 5.45e-12 5.71e-12 5.96e-12 6.2e-12 6.43e-12 6.86e-12 7.27e-12 7.64e-12 8e-12 8.35e-12 8.68e-12 9.01e-12 9.33e-12 9.64e-12 9.94e-12 
09 03 06  11 01 11 3.23e-12 3.34e-12 3.45e-12 3.66e-12 3.87e-12 4.1e-12 4.34e-12 4.58e-12 4.82e-12 5.07e-12 5.31e-12 5.78e-12 6.23e-12 6.66e-12 7.07e-12 7.46e-12 7.84e-12 8.21e-12 8.57e-12 8.92e-12 9.25e-12 
09 03 06  11 01 10 1.06e-11 1.01e-11 9.61e-12 8.88e-12 8.39e-12 8.07e-12 7.86e-12 7.72e-12 7.62e-12 7.56e-12 7.52e-12 7.51e-12 7.54e-12 7.6e-12 7.68e-12 7.77e-12 7.88e-12 7.98e-12 8.1e-12 8.21e-12 8.33e-12 
09 03 06  12 01 12 1.73e-12 2.72e-12 3.42e-12 4.33e-12 4.9e-12 5.32e-12 5.66e-12 5.96e-12 6.24e-12 6.5e-12 6.75e-12 7.23e-12 7.7e-12 8.15e-12 8.58e-12 9.01e-12 9.43e-12 9.84e-12 1.02e-11 1.06e-11 1.1e-11 
09 03 06  12 01 11 7.25e-13 2e-12 3.31e-12 5.44e-12 6.9e-12 7.91e-12 8.64e-12 9.19e-12 9.63e-12 9.99e-12 1.03e-11 1.08e-11 1.12e-11 1.16e-11 1.2e-11 1.23e-11 1.26e-11 1.29e-11 1.31e-11 1.34e-11 1.36e-11 
09 03 06  03 03 01 2.99e-12 3e-12 3.05e-12 3.18e-12 3.32e-12 3.44e-12 3.56e-12 3.67e-12 3.78e-12 3.89e-12 4e-12 4.22e-12 4.44e-12 4.67e-12 4.9e-12 5.12e-12 5.35e-12 5.58e-12 5.81e-12 6.04e-12 6.27e-12 
09 03 06  03 03 00 2.26e-12 2.24e-12 2.26e-12 2.34e-12 2.44e-12 2.53e-12 2.61e-12 2.68e-12 2.75e-12 2.81e-12 2.88e-12 3e-12 3.14e-12 3.28e-12 3.43e-12 3.6e-12 3.78e-12 3.96e-12 4.16e-12 4.37e-12 4.59e-12 
09 03 06  04 03 02 1.94e-12 1.94e-12 1.96e-12 2.05e-12 2.15e-12 2.25e-12 2.36e-12 2.47e-12 2.57e-12 2.67e-12 2.76e-12 2.94e-12 3.1e-12 3.26e-12 3.41e-12 3.57e-12 3.72e-12 3.88e-12 4.03e-12 4.19e-12 4.34e-12 
09 03 06  04 03 01 3.21e-12 3.23e-12 3.29e-12 3.48e-12 3.68e-12 3.88e-12 4.07e-12 4.26e-12 4.44e-12 4.63e-12 4.81e-12 5.18e-12 5.57e-12 5.96e-12 6.36e-12 6.78e-12 7.2e-12 7.64e-12 8.08e-12 8.54e-12 9e-12 
09 03 06  05 03 03 7.1e-12 6.92e-12 6.84e-12 6.78e-12 6.79e-12 6.85e-12 6.96e-12 7.1e-12 7.26e-12 7.45e-12 7.65e-12 8.07e-12 8.49e-12 8.91e-12 9.31e-12 9.69e-12 1.01e-11 1.04e-11 1.07e-11 1.1e-11 1.13e-11 
09 03 06  05 03 02 2.33e-12 2.24e-12 2.2e-12 2.17e-12 2.21e-12 2.27e-12 2.35e-12 2.44e-12 2.55e-12 2.65e-12 2.77e-12 3.01e-12 3.26e-12 3.52e-12 3.8e-12 4.08e-12 4.37e-12 4.68e-12 4.98e-12 5.3e-12 5.62e-12 
09 03 06  06 03 04 3.73e-12 3.59e-12 3.51e-12 3.45e-12 3.49e-12 3.58e-12 3.71e-12 3.86e-12 4.02e-12 4.2e-12 4.39e-12 4.78e-12 5.21e-12 5.66e-12 6.14e-12 6.64e-12 7.16e-12 7.7e-12 8.26e-12 8.84e-12 9.44e-12 
09 03 06  06 03 03 7.28e-12 7.27e-12 7.38e-12 7.7e-12 8.06e-12 8.43e-12 8.79e-12 9.13e-12 9.45e-12 9.75e-12 1e-11 1.06e-11 1.1e-11 1.15e-11 1.19e-11 1.22e-11 1.26e-11 1.28e-11 1.31e-11 1.34e-11 1.36e-11 
09 03 06  07 03 05 9.51e-12 9.37e-12 9.32e-12 9.37e-12 9.5e-12 9.69e-12 9.92e-12 1.02e-11 1.04e-11 1.07e-11 1.1e-11 1.15e-11 1.19e-11 1.24e-11 1.27e-11 1.31e-11 1.33e-11 1.36e-11 1.38e-11 1.39e-11 1.41e-11 
09 03 06  07 03 04 3.48e-12 3.51e-12 3.59e-12 3.9e-12 4.36e-12 4.94e-12 5.58e-12 6.27e-12 6.96e-12 7.66e-12 8.34e-12 9.64e-12 1.08e-11 1.2e-11 1.3e-11 1.39e-11 1.48e-11 1.56e-11 1.63e-11 1.7e-11 1.76e-11 
09 03 06  08 03 06 3.96e-12 4.1e-12 4.28e-12 4.71e-12 5.22e-12 5.8e-12 6.4e-12 7.01e-12 7.6e-12 8.19e-12 8.74e-12 9.79e-12 1.07e-11 1.16e-11 1.23e-11 1.3e-11 1.36e-11 1.42e-11 1.47e-11 1.52e-11 1.56e-11 
09 03 06  08 03 05 5.39e-11 5.35e-11 5.33e-11 5.32e-11 5.31e-11 5.3e-11 5.29e-11 5.28e-11 5.27e-11 5.26e-11 5.25e-11 5.24e-11 5.23e-11 5.23e-11 5.24e-11 5.24e-11 5.24e-11 5.23e-11 5.23e-11 5.21e-11 5.2e-11 
09 03 06  09 03 07 1.96e-11 2.05e-11 2.08e-11 2.09e-11 2.08e-11 2.07e-11 2.06e-11 2.06e-11 2.06e-11 2.06e-11 2.07e-11 2.08e-11 2.1e-11 2.12e-11 2.13e-11 2.15e-11 2.16e-11 2.17e-11 2.17e-11 2.17e-11 2.17e-11 
09 03 06  09 03 06 0 0 0 0 0 0 0 0 0 0 0 0 0 0 0 0 0 0 0 0 0 
09 03 06  10 03 08 1.86e-13 6.2e-13 1.14e-12 2.12e-12 2.97e-12 3.74e-12 4.44e-12 5.11e-12 5.76e-12 6.37e-12 6.98e-12 8.1e-12 9.13e-12 1.01e-11 1.11e-11 1.2e-11 1.28e-11 1.37e-11 1.44e-11 1.51e-11 1.58e-11 
09 03 06  10 03 07 2.01e-12 6.57e-12 1.18e-11 2.08e-11 2.73e-11 3.2e-11 3.54e-11 3.8e-11 4.01e-11 4.18e-11 4.32e-11 4.54e-11 4.7e-11 4.83e-11 4.94e-11 5.03e-11 5.1e-11 5.16e-11 5.21e-11 5.25e-11 5.27e-11 
10 03 08  01 01 01 6.48e-13 6.94e-13 7.3e-13 7.91e-13 8.47e-13 9e-13 9.5e-13 9.96e-13 1.04e-12 1.08e-12 1.11e-12 1.18e-12 1.24e-12 1.28e-12 1.33e-12 1.37e-12 1.4e-12 1.43e-12 1.46e-12 1.48e-12 1.5e-12 
10 03 08  01 01 00 5.78e-13 6.37e-13 6.88e-13 7.81e-13 8.69e-13 9.51e-13 1.03e-12 1.09e-12 1.15e-12 1.21e-12 1.25e-12 1.33e-12 1.4e-12 1.45e-12 1.49e-12 1.52e-12 1.55e-12 1.56e-12 1.58e-12 1.59e-12 1.6e-12 
10 03 08  02 01 02 1.31e-12 1.37e-12 1.41e-12 1.46e-12 1.5e-12 1.53e-12 1.56e-12 1.59e-12 1.62e-12 1.65e-12 1.68e-12 1.74e-12 1.8e-12 1.86e-12 1.92e-12 1.98e-12 2.05e-12 2.11e-12 2.17e-12 2.23e-12 2.29e-12 
10 03 08  02 01 01 7.77e-13 8.44e-13 8.99e-13 9.96e-13 1.09e-12 1.17e-12 1.25e-12 1.32e-12 1.39e-12 1.45e-12 1.5e-12 1.59e-12 1.67e-12 1.74e-12 1.79e-12 1.84e-12 1.87e-12 1.9e-12 1.93e-12 1.95e-12 1.97e-12 
10 03 08  03 01 03 1.31e-12 1.37e-12 1.41e-12 1.46e-12 1.5e-12 1.54e-12 1.58e-12 1.62e-12 1.65e-12 1.69e-12 1.73e-12 1.8e-12 1.88e-12 1.96e-12 2.04e-12 2.13e-12 2.23e-12 2.33e-12 2.43e-12 2.54e-12 2.65e-12 
10 03 08  03 01 02 1.02e-12 1.1e-12 1.15e-12 1.23e-12 1.3e-12 1.37e-12 1.43e-12 1.49e-12 1.54e-12 1.59e-12 1.63e-12 1.71e-12 1.77e-12 1.83e-12 1.87e-12 1.91e-12 1.95e-12 1.97e-12 2e-12 2.02e-12 2.03e-12 
10 03 08  04 01 04 1.62e-12 1.74e-12 1.82e-12 1.95e-12 2.06e-12 2.16e-12 2.25e-12 2.32e-12 2.39e-12 2.45e-12 2.51e-12 2.6e-12 2.69e-12 2.77e-12 2.84e-12 2.91e-12 2.98e-12 3.05e-12 3.11e-12 3.18e-12 3.25e-12 
10 03 08  04 01 03 9.12e-13 9.61e-13 9.94e-13 1.04e-12 1.08e-12 1.11e-12 1.15e-12 1.18e-12 1.21e-12 1.25e-12 1.28e-12 1.34e-12 1.39e-12 1.45e-12 1.5e-12 1.54e-12 1.59e-12 1.63e-12 1.67e-12 1.7e-12 1.74e-12 
10 03 08  05 01 05 1.9e-12 2.04e-12 2.13e-12 2.26e-12 2.35e-12 2.44e-12 2.51e-12 2.59e-12 2.66e-12 2.74e-12 2.82e-12 3e-12 3.18e-12 3.37e-12 3.56e-12 3.77e-12 3.98e-12 4.19e-12 4.4e-12 4.63e-12 4.85e-12 
10 03 08  05 01 04 1.03e-12 1.06e-12 1.07e-12 1.08e-12 1.09e-12 1.1e-12 1.12e-12 1.14e-12 1.17e-12 1.19e-12 1.22e-12 1.27e-12 1.32e-12 1.36e-12 1.41e-12 1.45e-12 1.5e-12 1.53e-12 1.57e-12 1.61e-12 1.64e-12 
10 03 08  06 01 06 2.67e-12 2.76e-12 2.81e-12 2.84e-12 2.86e-12 2.88e-12 2.9e-12 2.94e-12 2.99e-12 3.05e-12 3.11e-12 3.24e-12 3.38e-12 3.53e-12 3.67e-12 3.82e-12 3.97e-12 4.11e-12 4.25e-12 4.39e-12 4.52e-12 
10 03 08  06 01 05 1.89e-12 1.89e-12 1.87e-12 1.8e-12 1.75e-12 1.71e-12 1.69e-12 1.68e-12 1.68e-12 1.69e-12 1.7e-12 1.73e-12 1.78e-12 1.83e-12 1.89e-12 1.94e-12 2e-12 2.07e-12 2.13e-12 2.19e-12 2.25e-12 
10 03 08  07 01 07 2.66e-12 2.72e-12 2.73e-12 2.7e-12 2.68e-12 2.68e-12 2.7e-12 2.73e-12 2.78e-12 2.84e-12 2.91e-12 3.05e-12 3.21e-12 3.37e-12 3.52e-12 3.68e-12 3.84e-12 3.99e-12 4.14e-12 4.28e-12 4.43e-12 
10 03 08  07 01 06 3.33e-12 3.36e-12 3.33e-12 3.25e-12 3.18e-12 3.15e-12 3.15e-12 3.17e-12 3.2e-12 3.25e-12 3.3e-12 3.43e-12 3.56e-12 3.7e-12 3.84e-12 3.98e-12 4.12e-12 4.25e-12 4.39e-12 4.52e-12 4.65e-12 
10 03 08  08 01 08 2.03e-12 2.09e-12 2.12e-12 2.15e-12 2.2e-12 2.25e-12 2.31e-12 2.38e-12 2.46e-12 2.53e-12 2.6e-12 2.75e-12 2.89e-12 3.03e-12 3.16e-12 3.3e-12 3.42e-12 3.55e-12 3.67e-12 3.79e-12 3.91e-12 
10 03 08  08 01 07 5.56e-12 5.53e-12 5.42e-12 5.15e-12 4.94e-12 4.79e-12 4.68e-12 4.62e-12 4.58e-12 4.56e-12 4.55e-12 4.58e-12 4.63e-12 4.7e-12 4.79e-12 4.89e-12 4.99e-12 5.1e-12 5.22e-12 5.34e-12 5.46e-12 
10 03 08  09 01 09 3.06e-12 3.2e-12 3.29e-12 3.4e-12 3.47e-12 3.53e-12 3.59e-12 3.65e-12 3.71e-12 3.77e-12 3.84e-12 3.98e-12 4.12e-12 4.27e-12 4.41e-12 4.56e-12 4.71e-12 4.85e-12 5e-12 5.14e-12 5.28e-12 
10 03 08  09 01 08 7.73e-12 7.79e-12 7.74e-12 7.58e-12 7.48e-12 7.46e-12 7.49e-12 7.57e-12 7.67e-12 7.8e-12 7.94e-12 8.25e-12 8.59e-12 8.95e-12 9.32e-12 9.71e-12 1.01e-11 1.05e-11 1.09e-11 1.13e-11 1.17e-11 
10 03 08  10 01 10 6.23e-12 6.42e-12 6.5e-12 6.56e-12 6.6e-12 6.67e-12 6.77e-12 6.89e-12 7.03e-12 7.17e-12 7.33e-12 7.65e-12 7.97e-12 8.29e-12 8.61e-12 8.91e-12 9.2e-12 9.48e-12 9.75e-12 1e-11 1.03e-11 
10 03 08  10 01 09 4.75e-12 4.84e-12 4.87e-12 4.86e-12 4.86e-12 4.89e-12 4.94e-12 5.01e-12 5.09e-12 5.19e-12 5.29e-12 5.52e-12 5.77e-12 6.03e-12 6.32e-12 6.62e-12 6.93e-12 7.25e-12 7.59e-12 7.93e-12 8.28e-12 
10 03 08  11 01 11 1.23e-11 1.25e-11 1.24e-11 1.22e-11 1.21e-11 1.2e-11 1.21e-11 1.22e-11 1.23e-11 1.25e-11 1.27e-11 1.32e-11 1.36e-11 1.41e-11 1.45e-11 1.49e-11 1.53e-11 1.56e-11 1.59e-11 1.62e-11 1.65e-11 
10 03 08  11 01 10 4.26e-12 4.22e-12 4.12e-12 3.94e-12 3.85e-12 3.82e-12 3.84e-12 3.88e-12 3.94e-12 4.01e-12 4.09e-12 4.26e-12 4.45e-12 4.65e-12 4.86e-12 5.07e-12 5.29e-12 5.51e-12 5.74e-12 5.97e-12 6.2e-12 
10 03 08  12 01 12 1.13e-11 1.11e-11 1.07e-11 1e-11 9.51e-12 9.24e-12 9.12e-12 9.11e-12 9.18e-12 9.29e-12 9.44e-12 9.81e-12 1.02e-11 1.06e-11 1.11e-11 1.15e-11 1.19e-11 1.23e-11 1.27e-11 1.31e-11 1.35e-11 
10 03 08  12 01 11 1.15e-11 1.17e-11 1.15e-11 1.1e-11 1.05e-11 1.01e-11 9.89e-12 9.74e-12 9.65e-12 9.61e-12 9.61e-12 9.68e-12 9.83e-12 1e-11 1.02e-11 1.05e-11 1.07e-11 1.1e-11 1.12e-11 1.15e-11 1.18e-11 
10 03 08  03 03 01 8.19e-13 8.61e-13 8.9e-13 9.41e-13 9.96e-13 1.06e-12 1.12e-12 1.19e-12 1.26e-12 1.32e-12 1.39e-12 1.53e-12 1.66e-12 1.79e-12 1.92e-12 2.05e-12 2.17e-12 2.29e-12 2.41e-12 2.53e-12 2.65e-12 
10 03 08  03 03 00 4.85e-13 5.02e-13 5.13e-13 5.38e-13 5.73e-13 6.16e-13 6.66e-13 7.18e-13 7.72e-13 8.26e-13 8.8e-13 9.84e-13 1.08e-12 1.18e-12 1.27e-12 1.35e-12 1.43e-12 1.5e-12 1.58e-12 1.65e-12 1.71e-12 
10 03 08  04 03 02 1.78e-12 1.84e-12 1.88e-12 1.95e-12 2.03e-12 2.11e-12 2.19e-12 2.27e-12 2.34e-12 2.42e-12 2.49e-12 2.63e-12 2.77e-12 2.91e-12 3.05e-12 3.19e-12 3.34e-12 3.48e-12 3.63e-12 3.78e-12 3.94e-12 
10 03 08  04 03 01 2e-12 2.13e-12 2.24e-12 2.4e-12 2.55e-12 2.69e-12 2.82e-12 2.94e-12 3.06e-12 3.17e-12 3.27e-12 3.48e-12 3.69e-12 3.9e-12 4.11e-12 4.32e-12 4.54e-12 4.76e-12 4.98e-12 5.21e-12 5.45e-12 
10 03 08  05 03 03 4.81e-12 4.98e-12 5.07e-12 5.14e-12 5.18e-12 5.22e-12 5.27e-12 5.33e-12 5.4e-12 5.48e-12 5.56e-12 5.74e-12 5.92e-12 6.11e-12 6.29e-12 6.47e-12 6.65e-12 6.81e-12 6.98e-12 7.13e-12 7.28e-12 
10 03 08  05 03 02 2.93e-12 3.04e-12 3.12e-12 3.24e-12 3.37e-12 3.51e-12 3.64e-12 3.78e-12 3.9e-12 4.02e-12 4.13e-12 4.33e-12 4.51e-12 4.68e-12 4.83e-12 4.97e-12 5.11e-12 5.24e-12 5.36e-12 5.48e-12 5.6e-12 
10 03 08  06 03 04 3.86e-12 3.88e-12 3.84e-12 3.75e-12 3.7e-12 3.7e-12 3.72e-12 3.77e-12 3.84e-12 3.92e-12 4.01e-12 4.24e-12 4.5e-12 4.8e-12 5.12e-12 5.47e-12 5.84e-12 6.23e-12 6.64e-12 7.06e-12 7.5e-12 
10 03 08  06 03 03 6.79e-12 7.01e-12 7.11e-12 7.17e-12 7.2e-12 7.25e-12 7.32e-12 7.41e-12 7.52e-12 7.65e-12 7.78e-12 8.08e-12 8.38e-12 8.69e-12 9e-12 9.3e-12 9.6e-12 9.88e-12 1.02e-11 1.04e-11 1.07e-11 
10 03 08  07 03 05 6.72e-12 7.06e-12 7.3e-12 7.67e-12 7.99e-12 8.31e-12 8.61e-12 8.91e-12 9.19e-12 9.46e-12 9.71e-12 1.02e-11 1.06e-11 1.09e-11 1.12e-11 1.15e-11 1.17e-11 1.18e-11 1.2e-11 1.21e-11 1.22e-11 
10 03 08  07 03 04 3.24e-12 3.34e-12 3.39e-12 3.49e-12 3.62e-12 3.79e-12 3.97e-12 4.17e-12 4.38e-12 4.59e-12 4.81e-12 5.26e-12 5.73e-12 6.23e-12 6.75e-12 7.29e-12 7.85e-12 8.43e-12 9.04e-12 9.66e-12 1.03e-11 
10 03 08  08 03 06 2.45e-12 2.55e-12 2.65e-12 2.92e-12 3.31e-12 3.82e-12 4.4e-12 5.02e-12 5.66e-12 6.3e-12 6.95e-12 8.19e-12 9.36e-12 1.04e-11 1.14e-11 1.24e-11 1.33e-11 1.41e-11 1.48e-11 1.55e-11 1.62e-11 
10 03 08  08 03 05 8.94e-12 9.28e-12 9.48e-12 9.72e-12 9.93e-12 1.02e-11 1.04e-11 1.07e-11 1.09e-11 1.12e-11 1.15e-11 1.21e-11 1.27e-11 1.32e-11 1.38e-11 1.43e-11 1.48e-11 1.53e-11 1.58e-11 1.62e-11 1.66e-11 
10 03 08  09 03 07 5.73e-11 5.86e-11 5.88e-11 5.83e-11 5.75e-11 5.68e-11 5.62e-11 5.58e-11 5.54e-11 5.51e-11 5.49e-11 5.47e-11 5.46e-11 5.46e-11 5.47e-11 5.48e-11 5.49e-11 5.5e-11 5.51e-11 5.51e-11 5.51e-11 
10 03 08  09 03 06 5.55e-12 5.76e-12 5.9e-12 6.15e-12 6.44e-12 6.8e-12 7.2e-12 7.62e-12 8.06e-12 8.5e-12 8.95e-12 9.81e-12 1.06e-11 1.14e-11 1.22e-11 1.29e-11 1.36e-11 1.43e-11 1.49e-11 1.55e-11 1.61e-11 
10 03 08  10 03 08 0 0 0 0 0 0 0 0 0 0 0 0 0 0 0 0 0 0 0 0 0 
10 03 08  10 03 07 3.67e-11 3.75e-11 3.64e-11 3.32e-11 3.04e-11 2.83e-11 2.68e-11 2.56e-11 2.48e-11 2.42e-11 2.37e-11 2.32e-11 2.3e-11 2.3e-11 2.31e-11 2.34e-11 2.36e-11 2.39e-11 2.43e-11 2.46e-11 2.5e-11 
10 03 07  01 01 01 1.51e-13 1.57e-13 1.6e-13 1.63e-13 1.65e-13 1.66e-13 1.68e-13 1.7e-13 1.72e-13 1.75e-13 1.78e-13 1.88e-13 2e-13 2.16e-13 2.34e-13 2.55e-13 2.78e-13 3.03e-13 3.29e-13 3.58e-13 3.88e-13 
10 03 07  01 01 00 1.92e-13 1.96e-13 1.96e-13 1.94e-13 1.92e-13 1.9e-13 1.9e-13 1.91e-13 1.93e-13 1.96e-13 2.01e-13 2.15e-13 2.33e-13 2.55e-13 2.8e-13 3.08e-13 3.4e-13 3.73e-13 4.09e-13 4.46e-13 4.86e-13 
10 03 07  02 01 02 1.83e-13 1.96e-13 2.05e-13 2.22e-13 2.39e-13 2.56e-13 2.73e-13 2.91e-13 3.09e-13 3.26e-13 3.45e-13 3.82e-13 4.21e-13 4.62e-13 5.05e-13 5.49e-13 5.96e-13 6.44e-13 6.93e-13 7.44e-13 7.97e-13 
10 03 07  02 01 01 5.21e-13 5.46e-13 5.62e-13 5.9e-13 6.18e-13 6.45e-13 6.71e-13 6.95e-13 7.18e-13 7.39e-13 7.6e-13 7.99e-13 8.37e-13 8.75e-13 9.15e-13 9.55e-13 9.97e-13 1.04e-12 1.09e-12 1.13e-12 1.18e-12 
10 03 07  03 01 03 5.76e-13 6.03e-13 6.21e-13 6.5e-13 6.76e-13 7.02e-13 7.27e-13 7.51e-13 7.74e-13 7.97e-13 8.18e-13 8.61e-13 9.03e-13 9.44e-13 9.85e-13 1.03e-12 1.07e-12 1.11e-12 1.15e-12 1.19e-12 1.24e-12 
10 03 07  03 01 02 1.14e-12 1.19e-12 1.22e-12 1.27e-12 1.33e-12 1.38e-12 1.43e-12 1.48e-12 1.53e-12 1.57e-12 1.62e-12 1.71e-12 1.81e-12 1.91e-12 2.02e-12 2.13e-12 2.25e-12 2.38e-12 2.5e-12 2.64e-12 2.77e-12 
10 03 07  04 01 04 1.04e-12 1.07e-12 1.07e-12 1.08e-12 1.09e-12 1.1e-12 1.12e-12 1.14e-12 1.16e-12 1.19e-12 1.21e-12 1.26e-12 1.32e-12 1.36e-12 1.41e-12 1.45e-12 1.49e-12 1.53e-12 1.57e-12 1.6e-12 1.63e-12 
10 03 07  04 01 03 2.77e-12 2.88e-12 2.94e-12 3.02e-12 3.1e-12 3.17e-12 3.24e-12 3.31e-12 3.38e-12 3.45e-12 3.52e-12 3.66e-12 3.79e-12 3.92e-12 4.05e-12 4.18e-12 4.3e-12 4.43e-12 4.55e-12 4.68e-12 4.8e-12 
10 03 07  05 01 05 1.34e-12 1.38e-12 1.39e-12 1.42e-12 1.45e-12 1.49e-12 1.53e-12 1.58e-12 1.62e-12 1.67e-12 1.71e-12 1.78e-12 1.84e-12 1.89e-12 1.93e-12 1.95e-12 1.97e-12 1.99e-12 1.99e-12 2e-12 1.99e-12 
10 03 07  05 01 04 4.07e-12 4.15e-12 4.17e-12 4.17e-12 4.17e-12 4.2e-12 4.25e-12 4.31e-12 4.38e-12 4.45e-12 4.53e-12 4.7e-12 4.88e-12 5.05e-12 5.22e-12 5.4e-12 5.56e-12 5.73e-12 5.89e-12 6.05e-12 6.2e-12 
10 03 07  06 01 06 1.39e-12 1.46e-12 1.5e-12 1.59e-12 1.67e-12 1.76e-12 1.84e-12 1.92e-12 1.99e-12 2.06e-12 2.12e-12 2.24e-12 2.34e-12 2.42e-12 2.5e-12 2.56e-12 2.62e-12 2.68e-12 2.73e-12 2.77e-12 2.81e-12 
10 03 07  06 01 05 5.05e-12 5.15e-12 5.17e-12 5.17e-12 5.19e-12 5.25e-12 5.34e-12 5.44e-12 5.55e-12 5.66e-12 5.77e-12 5.97e-12 6.16e-12 6.32e-12 6.47e-12 6.58e-12 6.68e-12 6.76e-12 6.82e-12 6.86e-12 6.89e-12 
10 03 07  07 01 07 3.04e-12 3.17e-12 3.25e-12 3.36e-12 3.46e-12 3.56e-12 3.66e-12 3.75e-12 3.84e-12 3.93e-12 4.01e-12 4.17e-12 4.31e-12 4.44e-12 4.56e-12 4.68e-12 4.78e-12 4.88e-12 4.98e-12 5.06e-12 5.15e-12 
10 03 07  07 01 06 3.82e-12 3.87e-12 3.86e-12 3.81e-12 3.8e-12 3.81e-12 3.85e-12 3.91e-12 3.97e-12 4.04e-12 4.1e-12 4.23e-12 4.34e-12 4.43e-12 4.5e-12 4.56e-12 4.6e-12 4.62e-12 4.63e-12 4.63e-12 4.61e-12 
10 03 07  08 01 08 5.99e-12 6.14e-12 6.18e-12 6.17e-12 6.15e-12 6.16e-12 6.19e-12 6.24e-12 6.31e-12 6.39e-12 6.48e-12 6.69e-12 6.92e-12 7.16e-12 7.42e-12 7.69e-12 7.97e-12 8.25e-12 8.53e-12 8.82e-12 9.11e-12 
10 03 07  08 01 07 2.79e-12 2.87e-12 2.91e-12 2.97e-12 3.06e-12 3.17e-12 3.29e-12 3.42e-12 3.55e-12 3.67e-12 3.79e-12 4.01e-12 4.21e-12 4.4e-12 4.56e-12 4.71e-12 4.85e-12 4.97e-12 5.09e-12 5.19e-12 5.28e-12 
10 03 07  09 01 09 7.82e-12 7.8e-12 7.67e-12 7.34e-12 7.1e-12 6.94e-12 6.87e-12 6.84e-12 6.86e-12 6.9e-12 6.97e-12 7.14e-12 7.35e-12 7.57e-12 7.81e-12 8.04e-12 8.28e-12 8.52e-12 8.76e-12 8.99e-12 9.23e-12 
10 03 07  09 01 08 2.31e-12 2.39e-12 2.43e-12 2.47e-12 2.5e-12 2.53e-12 2.57e-12 2.62e-12 2.67e-12 2.72e-12 2.78e-12 2.91e-12 3.05e-12 3.2e-12 3.35e-12 3.51e-12 3.67e-12 3.83e-12 4e-12 4.17e-12 4.34e-12 
10 03 07  10 01 10 8.34e-12 8.27e-12 8.08e-12 7.64e-12 7.28e-12 7.02e-12 6.85e-12 6.73e-12 6.65e-12 6.61e-12 6.6e-12 6.63e-12 6.71e-12 6.83e-12 6.97e-12 7.13e-12 7.31e-12 7.5e-12 7.7e-12 7.9e-12 8.11e-12 
10 03 07  10 01 09 5.04e-12 5.14e-12 5.17e-12 5.14e-12 5.14e-12 5.18e-12 5.25e-12 5.35e-12 5.48e-12 5.62e-12 5.77e-12 6.11e-12 6.48e-12 6.87e-12 7.27e-12 7.68e-12 8.1e-12 8.54e-12 8.98e-12 9.43e-12 9.88e-12 
10 03 07  11 01 11 5.39e-12 5.22e-12 4.96e-12 4.46e-12 4.05e-12 3.75e-12 3.53e-12 3.36e-12 3.25e-12 3.16e-12 3.11e-12 3.07e-12 3.09e-12 3.15e-12 3.25e-12 3.38e-12 3.53e-12 3.69e-12 3.88e-12 4.07e-12 4.28e-12 
10 03 07  11 01 10 4.93e-12 5.11e-12 5.22e-12 5.41e-12 5.61e-12 5.83e-12 6.08e-12 6.33e-12 6.59e-12 6.85e-12 7.11e-12 7.64e-12 8.17e-12 8.7e-12 9.24e-12 9.78e-12 1.03e-11 1.09e-11 1.14e-11 1.2e-11 1.25e-11 
10 03 07  12 01 12 5.27e-12 5.42e-12 5.46e-12 5.46e-12 5.47e-12 5.5e-12 5.56e-12 5.65e-12 5.76e-12 5.88e-12 6.01e-12 6.3e-12 6.59e-12 6.9e-12 7.2e-12 7.49e-12 7.78e-12 8.07e-12 8.35e-12 8.62e-12 8.89e-12 
10 03 07  12 01 11 1.41e-11 1.4e-11 1.36e-11 1.25e-11 1.15e-11 1.08e-11 1.04e-11 1e-11 9.82e-12 9.68e-12 9.61e-12 9.61e-12 9.73e-12 9.91e-12 1.01e-11 1.04e-11 1.07e-11 1.09e-11 1.12e-11 1.15e-11 1.17e-11 
10 03 07  03 03 01 1.83e-12 1.95e-12 2.04e-12 2.2e-12 2.36e-12 2.51e-12 2.65e-12 2.79e-12 2.92e-12 3.04e-12 3.15e-12 3.36e-12 3.56e-12 3.75e-12 3.94e-12 4.12e-12 4.31e-12 4.5e-12 4.69e-12 4.89e-12 5.09e-12 
10 03 07  03 03 00 2.01e-12 2.14e-12 2.23e-12 2.37e-12 2.48e-12 2.59e-12 2.69e-12 2.79e-12 2.88e-12 2.97e-12 3.05e-12 3.2e-12 3.34e-12 3.47e-12 3.59e-12 3.7e-12 3.8e-12 3.9e-12 3.99e-12 4.08e-12 4.16e-12 
10 03 07  04 03 02 1.79e-12 1.93e-12 2.04e-12 2.21e-12 2.36e-12 2.49e-12 2.61e-12 2.72e-12 2.84e-12 2.95e-12 3.05e-12 3.27e-12 3.49e-12 3.72e-12 3.96e-12 4.2e-12 4.45e-12 4.7e-12 4.96e-12 5.23e-12 5.51e-12 
10 03 07  04 03 01 1.63e-12 1.69e-12 1.73e-12 1.8e-12 1.87e-12 1.96e-12 2.05e-12 2.15e-12 2.25e-12 2.34e-12 2.44e-12 2.62e-12 2.8e-12 2.96e-12 3.12e-12 3.26e-12 3.41e-12 3.54e-12 3.67e-12 3.79e-12 3.91e-12 
10 03 07  05 03 03 1.79e-12 1.89e-12 1.97e-12 2.09e-12 2.21e-12 2.33e-12 2.45e-12 2.56e-12 2.68e-12 2.78e-12 2.89e-12 3.09e-12 3.27e-12 3.44e-12 3.6e-12 3.75e-12 3.9e-12 4.04e-12 4.17e-12 4.3e-12 4.42e-12 
10 03 07  05 03 02 2.92e-12 3.08e-12 3.19e-12 3.34e-12 3.47e-12 3.61e-12 3.76e-12 3.91e-12 4.07e-12 4.24e-12 4.42e-12 4.78e-12 5.16e-12 5.55e-12 5.94e-12 6.35e-12 6.76e-12 7.17e-12 7.6e-12 8.02e-12 8.46e-12 
10 03 07  06 03 04 6.17e-12 6.39e-12 6.49e-12 6.56e-12 6.59e-12 6.65e-12 6.75e-12 6.89e-12 7.06e-12 7.27e-12 7.49e-12 7.99e-12 8.54e-12 9.11e-12 9.71e-12 1.03e-11 1.09e-11 1.15e-11 1.21e-11 1.28e-11 1.34e-11 
10 03 07  06 03 03 2.32e-12 2.33e-12 2.31e-12 2.27e-12 2.27e-12 2.31e-12 2.36e-12 2.44e-12 2.52e-12 2.6e-12 2.7e-12 2.89e-12 3.09e-12 3.3e-12 3.51e-12 3.72e-12 3.94e-12 4.15e-12 4.37e-12 4.6e-12 4.82e-12 
10 03 07  07 03 05 3.67e-12 3.72e-12 3.72e-12 3.68e-12 3.66e-12 3.67e-12 3.71e-12 3.77e-12 3.84e-12 3.93e-12 4.03e-12 4.26e-12 4.51e-12 4.77e-12 5.05e-12 5.34e-12 5.63e-12 5.94e-12 6.25e-12 6.57e-12 6.89e-12 
10 03 07  07 03 04 6.84e-12 7.27e-12 7.58e-12 8.06e-12 8.47e-12 8.85e-12 9.22e-12 9.57e-12 9.92e-12 1.03e-11 1.06e-11 1.12e-11 1.19e-11 1.25e-11 1.31e-11 1.37e-11 1.43e-11 1.49e-11 1.55e-11 1.61e-11 1.67e-11 
10 03 07  08 03 06 1e-11 1.03e-11 1.04e-11 1.04e-11 1.04e-11 1.04e-11 1.05e-11 1.07e-11 1.08e-11 1.1e-11 1.12e-11 1.17e-11 1.22e-11 1.27e-11 1.32e-11 1.37e-11 1.42e-11 1.47e-11 1.51e-11 1.56e-11 1.6e-11 
10 03 07  08 03 05 3.02e-12 3.15e-12 3.25e-12 3.5e-12 3.86e-12 4.32e-12 4.84e-12 5.41e-12 5.99e-12 6.58e-12 7.17e-12 8.31e-12 9.4e-12 1.04e-11 1.14e-11 1.23e-11 1.32e-11 1.4e-11 1.48e-11 1.55e-11 1.63e-11 
10 03 07  09 03 07 3.66e-12 3.86e-12 4e-12 4.29e-12 4.62e-12 5e-12 5.42e-12 5.85e-12 6.29e-12 6.73e-12 7.17e-12 8.02e-12 8.84e-12 9.63e-12 1.04e-11 1.11e-11 1.18e-11 1.25e-11 1.31e-11 1.38e-11 1.44e-11 
10 03 07  09 03 06 6e-11 6.11e-11 6.12e-11 6.03e-11 5.92e-11 5.82e-11 5.74e-11 5.67e-11 5.62e-11 5.58e-11 5.54e-11 5.49e-11 5.46e-11 5.44e-11 5.43e-11 5.42e-11 5.41e-11 5.4e-11 5.39e-11 5.38e-11 5.36e-11 
10 03 07  10 03 08 3.67e-11 3.75e-11 3.64e-11 3.32e-11 3.04e-11 2.83e-11 2.68e-11 2.56e-11 2.48e-11 2.42e-11 2.37e-11 2.32e-11 2.3e-11 2.3e-11 2.31e-11 2.34e-11 2.36e-11 2.39e-11 2.43e-11 2.46e-11 2.5e-11 
10 03 07  10 03 07 0 0 0 0 0 0 0 0 0 0 0 0 0 0 0 0 0 0 0 0 0 
