21
10. 15. 20. 30. 40. 50. 60. 70. 80. 90. 100. 120. 140. 160. 180. 200. 220. 240. 260. 280. 300.
00 00 00  00 00 00 0 0 0 0 0 0 0 0 0 0 0 0 0 0 0 0 0 0 0 0 0 
00 00 00  01 00 01 8.42e-11 9.32e-11 9.65e-11 9.75e-11 9.59e-11 9.37e-11 9.11e-11 8.88e-11 8.67e-11 8.45e-11 8.28e-11 7.95e-11 7.7e-11 7.51e-11 7.33e-11 7.19e-11 7.06e-11 6.95e-11 6.87e-11 6.78e-11 6.73e-11 
00 00 00  02 00 02 1.86e-11 2.86e-11 3.64e-11 4.72e-11 5.5e-11 6.04e-11 6.51e-11 6.84e-11 7.11e-11 7.34e-11 7.52e-11 7.84e-11 8.07e-11 8.24e-11 8.35e-11 8.45e-11 8.53e-11 8.62e-11 8.64e-11 8.67e-11 8.74e-11 
00 00 00  03 00 03 2.6e-12 4.98e-12 6.87e-12 9.64e-12 1.18e-11 1.35e-11 1.51e-11 1.64e-11 1.76e-11 1.86e-11 1.95e-11 2.09e-11 2.2e-11 2.29e-11 2.36e-11 2.42e-11 2.47e-11 2.5e-11 2.54e-11 2.56e-11 2.58e-11 
00 00 00  04 00 04 1.17e-12 3.26e-12 5.22e-12 8.23e-12 1.06e-11 1.27e-11 1.46e-11 1.65e-11 1.83e-11 1.99e-11 2.14e-11 2.43e-11 2.68e-11 2.9e-11 3.1e-11 3.28e-11 3.44e-11 3.58e-11 3.71e-11 3.83e-11 3.93e-11 
00 00 00  05 00 05 7e-14 3.8e-13 8.7e-13 2.01e-12 3.12e-12 4.16e-12 5.24e-12 6.35e-12 7.43e-12 8.54e-12 9.57e-12 1.17e-11 1.35e-11 1.53e-11 1.69e-11 1.83e-11 1.96e-11 2.07e-11 2.18e-11 2.27e-11 2.35e-11 
00 00 00  06 00 06 0 1e-14 4e-14 1.5e-13 3.5e-13 6.7e-13 1.1e-12 1.63e-12 2.23e-12 2.88e-12 3.56e-12 4.98e-12 6.4e-12 7.78e-12 9.17e-12 1.05e-11 1.17e-11 1.29e-11 1.41e-11 1.53e-11 1.65e-11 
00 00 00  07 00 07 0 1e-14 3e-14 1.4e-13 3.1e-13 5.2e-13 7.5e-13 1.02e-12 1.33e-12 1.68e-12 2.07e-12 2.95e-12 3.93e-12 4.96e-12 6.02e-12 7.05e-12 8.06e-12 9.02e-12 9.92e-12 1.08e-11 1.15e-11 
00 00 00  08 00 08 0 0 1e-14 7e-14 1.9e-13 3.8e-13 6e-13 8.3e-13 1.08e-12 1.34e-12 1.59e-12 2.1e-12 2.61e-12 3.1e-12 3.58e-12 4.05e-12 4.53e-12 5e-12 5.48e-12 5.97e-12 6.47e-12 
00 00 00  09 00 09 0 0 0 2e-14 6e-14 1.4e-13 2.5e-13 3.8e-13 5.2e-13 6.8e-13 8.4e-13 1.22e-12 1.66e-12 2.17e-12 2.74e-12 3.38e-12 4.06e-12 4.81e-12 5.58e-12 6.39e-12 7.24e-12 
00 00 00  10 00 10 0 0 0 1e-14 6e-14 1.6e-13 3.2e-13 5.2e-13 7.7e-13 1.05e-12 1.34e-12 1.95e-12 2.58e-12 3.18e-12 3.75e-12 4.3e-12 4.8e-12 5.27e-12 5.7e-12 6.09e-12 6.44e-12 
00 00 00  11 00 11 0 0 0 0 1e-14 3e-14 6e-14 1.1e-13 1.7e-13 2.4e-13 3.1e-13 4.8e-13 6.5e-13 8.2e-13 1e-12 1.18e-12 1.36e-12 1.55e-12 1.75e-12 1.96e-12 2.18e-12 
00 00 00  12 00 12 0 0 0 0 0 2e-14 5e-14 1e-13 1.7e-13 2.7e-13 3.9e-13 6.7e-13 1.01e-12 1.39e-12 1.78e-12 2.18e-12 2.59e-12 2.99e-12 3.38e-12 3.77e-12 4.14e-12 
00 00 00  02 02 01 0 0 0 0 0 0 0 0 0 0 0 0 0 0 0 0 0 0 0 0 0 
00 00 00  02 02 00 5e-14 3.7e-13 1.01e-12 2.93e-12 5.22e-12 7.63e-12 9.99e-12 1.23e-11 1.45e-11 1.65e-11 1.85e-11 2.21e-11 2.53e-11 2.82e-11 3.08e-11 3.31e-11 3.52e-11 3.72e-11 3.89e-11 4.05e-11 4.21e-11 
00 00 00  03 02 02 0 0 0 0 0 0 0 0 0 0 0 0 0 0 0 0 0 0 0 0 0 
00 00 00  03 02 01 2e-14 1.6e-13 5e-13 1.56e-12 2.81e-12 4.05e-12 5.24e-12 6.35e-12 7.38e-12 8.34e-12 9.25e-12 1.08e-11 1.23e-11 1.35e-11 1.47e-11 1.57e-11 1.67e-11 1.76e-11 1.84e-11 1.92e-11 1.99e-11 
00 00 00  04 02 03 0 0 0 0 0 0 0 0 0 0 0 0 0 0 0 0 0 0 0 0 0 
00 00 00  04 02 02 0 4e-14 1.7e-13 6.8e-13 1.4e-12 2.21e-12 3.03e-12 3.85e-12 4.61e-12 5.39e-12 6.14e-12 7.59e-12 8.91e-12 1.02e-11 1.14e-11 1.26e-11 1.37e-11 1.48e-11 1.58e-11 1.68e-11 1.77e-11 
00 00 00  05 02 04 0 0 0 0 0 0 0 0 0 0 0 0 0 0 0 0 0 0 0 0 0 
00 00 00  05 02 03 0 2e-14 1.1e-13 6.4e-13 1.53e-12 2.58e-12 3.66e-12 4.72e-12 5.74e-12 6.66e-12 7.52e-12 9.02e-12 1.04e-11 1.16e-11 1.26e-11 1.36e-11 1.44e-11 1.52e-11 1.6e-11 1.67e-11 1.73e-11 
00 00 00  06 02 05 0 0 0 0 0 0 0 0 0 0 0 0 0 0 0 0 0 0 0 0 0 
00 00 00  06 02 04 0 0 1e-14 9e-14 2.6e-13 4.9e-13 7.5e-13 1.03e-12 1.31e-12 1.58e-12 1.85e-12 2.36e-12 2.84e-12 3.3e-12 3.74e-12 4.17e-12 4.59e-12 5.01e-12 5.42e-12 5.83e-12 6.25e-12 
00 00 00  07 02 06 0 0 0 0 0 0 0 0 0 0 0 0 0 0 0 0 0 0 0 0 0 
00 00 00  07 02 05 0 0 0 5e-14 1.9e-13 4.1e-13 6.9e-13 1.03e-12 1.38e-12 1.76e-12 2.13e-12 2.86e-12 3.55e-12 4.18e-12 4.77e-12 5.3e-12 5.79e-12 6.24e-12 6.65e-12 7.03e-12 7.37e-12 
00 00 00  08 02 07 0 0 0 0 0 0 0 0 0 0 0 0 0 0 0 0 0 0 0 0 0 
00 00 00  08 02 06 0 0 0 2e-14 6e-14 1.5e-13 2.6e-13 4.1e-13 5.7e-13 7.4e-13 9.2e-13 1.3e-12 1.69e-12 2.07e-12 2.43e-12 2.79e-12 3.12e-12 3.44e-12 3.74e-12 4.03e-12 4.31e-12 
00 00 00  09 02 08 0 0 0 0 0 0 0 0 0 0 0 0 0 0 0 0 0 0 0 0 0 
00 00 00  09 02 07 0 0 0 0 2e-14 6e-14 1.2e-13 2e-13 3e-13 4.3e-13 5.7e-13 8.9e-13 1.24e-12 1.62e-12 2e-12 2.38e-12 2.75e-12 3.12e-12 3.49e-12 3.84e-12 4.17e-12 
00 00 00  10 02 09 0 0 0 0 0 0 0 0 0 0 0 0 0 0 0 0 0 0 0 0 0 
00 00 00  10 02 08 0 0 0 0 1e-14 3e-14 7e-14 1.2e-13 1.9e-13 2.7e-13 3.6e-13 5.7e-13 8e-13 1.04e-12 1.28e-12 1.53e-12 1.77e-12 2.01e-12 2.24e-12 2.47e-12 2.69e-12 
00 00 00  11 02 10 0 0 0 0 0 0 0 0 0 0 0 0 0 0 0 0 0 0 0 0 0 
00 00 00  11 02 09 0 0 0 0 0 0 1e-14 2e-14 4e-14 6e-14 9e-14 1.7e-13 2.7e-13 3.8e-13 5.1e-13 6.4e-13 7.8e-13 9.3e-13 1.06e-12 1.19e-12 1.33e-12 
00 00 00  04 04 01 0 0 0 0 0 0 0 0 0 0 0 0 0 0 0 0 0 0 0 0 0 
00 00 00  04 04 00 0 0 0 0 0 1e-14 3e-14 6e-14 9e-14 1.3e-13 1.7e-13 2.7e-13 3.9e-13 5.1e-13 6.4e-13 7.8e-13 9.4e-13 1.1e-12 1.28e-12 1.47e-12 1.67e-12 
00 00 00  05 04 02 0 0 0 0 0 0 0 0 0 0 0 0 0 0 0 0 0 0 0 0 0 
00 00 00  05 04 01 0 0 0 0 1e-14 2e-14 4e-14 8e-14 1.2e-13 1.8e-13 2.5e-13 4e-13 5.9e-13 7.9e-13 1.01e-12 1.23e-12 1.45e-12 1.68e-12 1.9e-12 2.12e-12 2.34e-12 
00 00 00  06 04 03 0 0 0 0 0 0 0 0 0 0 0 0 0 0 0 0 0 0 0 0 0 
00 00 00  06 04 02 0 0 0 0 0 1e-14 4e-14 7e-14 1.1e-13 1.7e-13 2.4e-13 4e-13 5.9e-13 8.2e-13 1.06e-12 1.33e-12 1.63e-12 1.94e-12 2.27e-12 2.63e-12 3e-12 
00 00 00  07 04 04 0 0 0 0 0 0 0 0 0 0 0 0 0 0 0 0 0 0 0 0 0 
00 00 00  07 04 03 0 0 0 0 0 2e-14 4e-14 9e-14 1.5e-13 2.4e-13 3.5e-13 6.1e-13 9.4e-13 1.32e-12 1.73e-12 2.16e-12 2.62e-12 3.08e-12 3.55e-12 4.02e-12 4.49e-12 
01 00 01  00 00 00 3.98e-11 3.92e-11 3.83e-11 3.65e-11 3.49e-11 3.35e-11 3.22e-11 3.11e-11 3.02e-11 2.93e-11 2.86e-11 2.73e-11 2.63e-11 2.56e-11 2.49e-11 2.44e-11 2.39e-11 2.35e-11 2.32e-11 2.29e-11 2.27e-11 
01 00 01  01 00 01 0 0 0 0 0 0 0 0 0 0 0 0 0 0 0 0 0 0 0 0 0 
01 00 01  02 00 02 4.48e-11 5.5e-11 6e-11 6.42e-11 6.51e-11 6.49e-11 6.44e-11 6.37e-11 6.29e-11 6.22e-11 6.15e-11 6.02e-11 5.93e-11 5.86e-11 5.79e-11 5.73e-11 5.68e-11 5.63e-11 5.6e-11 5.56e-11 5.54e-11 
01 00 01  03 00 03 5e-12 9.39e-12 1.32e-11 1.98e-11 2.53e-11 3.01e-11 3.43e-11 3.78e-11 4.11e-11 4.38e-11 4.62e-11 5.02e-11 5.33e-11 5.61e-11 5.82e-11 6.01e-11 6.16e-11 6.29e-11 6.41e-11 6.51e-11 6.6e-11 
01 00 01  04 00 04 8.2e-13 2.18e-12 3.52e-12 5.76e-12 7.59e-12 9.16e-12 1.06e-11 1.19e-11 1.32e-11 1.43e-11 1.54e-11 1.72e-11 1.87e-11 2.01e-11 2.12e-11 2.21e-11 2.29e-11 2.36e-11 2.42e-11 2.47e-11 2.51e-11 
01 00 01  05 00 05 1e-13 4.6e-13 9.8e-13 2.2e-12 3.48e-12 4.81e-12 6.15e-12 7.49e-12 8.81e-12 1.01e-11 1.13e-11 1.37e-11 1.59e-11 1.78e-11 1.96e-11 2.13e-11 2.28e-11 2.43e-11 2.56e-11 2.68e-11 2.79e-11 
01 00 01  06 00 06 1e-14 7e-14 2.3e-13 7.1e-13 1.29e-12 1.92e-12 2.58e-12 3.29e-12 4.05e-12 4.84e-12 5.64e-12 7.29e-12 8.92e-12 1.05e-11 1.2e-11 1.34e-11 1.47e-11 1.58e-11 1.69e-11 1.79e-11 1.88e-11 
01 00 01  07 00 07 0 0 2e-14 1e-13 2.6e-13 5e-13 8e-13 1.16e-12 1.57e-12 2.02e-12 2.47e-12 3.46e-12 4.51e-12 5.55e-12 6.63e-12 7.67e-12 8.76e-12 9.82e-12 1.09e-11 1.2e-11 1.31e-11 
01 00 01  08 00 08 0 0 1e-14 5e-14 1.4e-13 2.7e-13 4.3e-13 6.2e-13 8.3e-13 1.06e-12 1.31e-12 1.88e-12 2.51e-12 3.19e-12 3.91e-12 4.64e-12 5.4e-12 6.09e-12 6.83e-12 7.51e-12 8.18e-12 
01 00 01  09 00 09 0 0 0 3e-14 1.3e-13 2.9e-13 5e-13 7.5e-13 1.03e-12 1.32e-12 1.62e-12 2.22e-12 2.79e-12 3.32e-12 3.83e-12 4.32e-12 4.75e-12 5.17e-12 5.57e-12 5.96e-12 6.3e-12 
01 00 01  10 00 10 0 0 0 0 2e-14 6e-14 1.3e-13 2.1e-13 3e-13 4.1e-13 5.3e-13 7.9e-13 1.08e-12 1.4e-12 1.75e-12 2.13e-12 2.55e-12 3e-12 3.49e-12 4e-12 4.52e-12 
01 00 01  11 00 11 0 0 0 0 2e-14 6e-14 1.5e-13 2.6e-13 4.1e-13 5.9e-13 7.9e-13 1.24e-12 1.73e-12 2.22e-12 2.71e-12 3.2e-12 3.69e-12 4.14e-12 4.58e-12 5.01e-12 5.39e-12 
01 00 01  12 00 12 0 0 0 0 0 1e-14 2e-14 5e-14 8e-14 1.2e-13 1.7e-13 2.8e-13 4.1e-13 5.5e-13 7.2e-13 8.9e-13 1.09e-12 1.3e-12 1.53e-12 1.77e-12 2.04e-12 
01 00 01  02 02 01 6e-14 3.4e-13 8.7e-13 2.34e-12 3.99e-12 5.64e-12 7.24e-12 8.77e-12 1.02e-11 1.15e-11 1.28e-11 1.52e-11 1.72e-11 1.91e-11 2.07e-11 2.22e-11 2.37e-11 2.5e-11 2.63e-11 2.73e-11 2.84e-11 
01 00 01  02 02 00 4e-14 2.3e-13 5.2e-13 1.18e-12 1.78e-12 2.29e-12 2.73e-12 3.1e-12 3.43e-12 3.72e-12 3.97e-12 4.41e-12 4.77e-12 5.07e-12 5.34e-12 5.58e-12 5.8e-12 6e-12 6.19e-12 6.35e-12 6.5e-12 
01 00 01  03 02 02 1e-14 7e-14 2.1e-13 6.4e-13 1.14e-12 1.64e-12 2.11e-12 2.53e-12 2.92e-12 3.29e-12 3.63e-12 4.24e-12 4.75e-12 5.22e-12 5.64e-12 6e-12 6.33e-12 6.65e-12 6.93e-12 7.19e-12 7.41e-12 
01 00 01  03 02 01 2e-14 1.7e-13 4.8e-13 1.43e-12 2.56e-12 3.7e-12 4.81e-12 5.87e-12 6.88e-12 7.82e-12 8.72e-12 1.04e-11 1.18e-11 1.32e-11 1.44e-11 1.55e-11 1.65e-11 1.75e-11 1.84e-11 1.93e-11 2.01e-11 
01 00 01  04 02 03 0 1e-14 5e-14 2e-13 4e-13 6.1e-13 8.2e-13 1.03e-12 1.21e-12 1.4e-12 1.59e-12 1.93e-12 2.24e-12 2.55e-12 2.83e-12 3.1e-12 3.36e-12 3.59e-12 3.81e-12 4.03e-12 4.23e-12 
01 00 01  04 02 02 1e-14 9e-14 3.2e-13 1.17e-12 2.24e-12 3.32e-12 4.33e-12 5.26e-12 6.1e-12 6.88e-12 7.59e-12 8.85e-12 9.96e-12 1.09e-11 1.18e-11 1.26e-11 1.34e-11 1.41e-11 1.47e-11 1.53e-11 1.59e-11 
01 00 01  05 02 04 0 0 2e-14 1e-13 2.3e-13 3.9e-13 5.5e-13 7e-13 8.4e-13 9.8e-13 1.1e-12 1.32e-12 1.51e-12 1.68e-12 1.83e-12 1.97e-12 2.09e-12 2.21e-12 2.32e-12 2.43e-12 2.53e-12 
01 00 01  05 02 03 0 2e-14 8e-14 3.7e-13 7.8e-13 1.24e-12 1.69e-12 2.13e-12 2.56e-12 2.99e-12 3.4e-12 4.18e-12 4.93e-12 5.63e-12 6.3e-12 6.94e-12 7.56e-12 8.11e-12 8.67e-12 9.19e-12 9.66e-12 
01 00 01  06 02 05 0 0 0 1e-14 4e-14 7e-14 1.1e-13 1.5e-13 1.9e-13 2.3e-13 2.6e-13 3.3e-13 3.9e-13 4.5e-13 5.1e-13 5.6e-13 6.1e-13 6.6e-13 7.1e-13 7.6e-13 8.1e-13 
01 00 01  06 02 04 0 1e-14 3e-14 2.4e-13 6.6e-13 1.2e-12 1.8e-12 2.43e-12 3.04e-12 3.64e-12 4.2e-12 5.25e-12 6.18e-12 7.03e-12 7.78e-12 8.47e-12 9.11e-12 9.69e-12 1.02e-11 1.07e-11 1.12e-11 
01 00 01  07 02 06 0 0 0 1e-14 2e-14 4e-14 7e-14 1e-13 1.3e-13 1.7e-13 2e-13 2.7e-13 3.3e-13 3.9e-13 4.5e-13 5.1e-13 5.6e-13 6.1e-13 6.6e-13 7e-13 7.5e-13 
01 00 01  07 02 05 0 0 1e-14 5e-14 1.7e-13 3.4e-13 5.5e-13 7.7e-13 1.01e-12 1.24e-12 1.47e-12 1.92e-12 2.37e-12 2.81e-12 3.21e-12 3.62e-12 4.05e-12 4.44e-12 4.85e-12 5.25e-12 5.68e-12 
01 00 01  08 02 07 0 0 0 0 1e-14 2e-14 3e-14 4e-14 6e-14 7e-14 9e-14 1.2e-13 1.5e-13 1.8e-13 2.1e-13 2.3e-13 2.6e-13 2.8e-13 3e-13 3.2e-13 3.4e-13 
01 00 01  08 02 06 0 0 0 2e-14 7e-14 1.7e-13 3.3e-13 5.1e-13 7.4e-13 9.7e-13 1.24e-12 1.78e-12 2.33e-12 2.87e-12 3.38e-12 3.89e-12 4.33e-12 4.76e-12 5.17e-12 5.51e-12 5.86e-12 
01 00 01  09 02 08 0 0 0 0 0 0 1e-14 1e-14 2e-14 3e-14 3e-14 5e-14 6e-14 7e-14 9e-14 1e-13 1.1e-13 1.3e-13 1.5e-13 1.7e-13 1.8e-13 
01 00 01  09 02 07 0 0 0 1e-14 3e-14 7e-14 1.5e-13 2.4e-13 3.5e-13 4.8e-13 6.1e-13 8.9e-13 1.19e-12 1.49e-12 1.78e-12 2.07e-12 2.35e-12 2.62e-12 2.88e-12 3.12e-12 3.37e-12 
01 00 01  10 02 09 0 0 0 0 0 0 0 1e-14 1e-14 1e-14 2e-14 3e-14 4e-14 5e-14 7e-14 8e-14 9e-14 1e-13 1.2e-13 1.3e-13 1.4e-13 
01 00 01  10 02 08 0 0 0 0 1e-14 2e-14 4e-14 7e-14 1.2e-13 1.8e-13 2.4e-13 4.1e-13 6.1e-13 8.4e-13 1.08e-12 1.33e-12 1.59e-12 1.84e-12 2.1e-12 2.35e-12 2.6e-12 
01 00 01  11 02 10 0 0 0 0 0 0 0 0 0 0 0 0 1e-14 1e-14 1e-14 1e-14 2e-14 2e-14 3e-14 3e-14 4e-14 
01 00 01  11 02 09 0 0 0 0 0 1e-14 2e-14 5e-14 8e-14 1.2e-13 1.6e-13 2.7e-13 3.9e-13 5.2e-13 6.6e-13 7.9e-13 9.3e-13 1.06e-12 1.19e-12 1.32e-12 1.45e-12 
01 00 01  04 04 01 0 0 0 0 0 1e-14 3e-14 5e-14 7e-14 1.1e-13 1.5e-13 2.4e-13 3.4e-13 4.5e-13 5.6e-13 6.8e-13 8e-13 9.3e-13 1.05e-12 1.18e-12 1.31e-12 
01 00 01  04 04 00 0 0 0 0 0 0 1e-14 2e-14 2e-14 4e-14 5e-14 7e-14 1.1e-13 1.4e-13 1.9e-13 2.3e-13 2.8e-13 3.3e-13 3.9e-13 4.5e-13 5.1e-13 
01 00 01  05 04 02 0 0 0 0 0 1e-14 2e-14 4e-14 6e-14 9e-14 1.2e-13 1.9e-13 2.8e-13 3.9e-13 5e-13 6.3e-13 7.7e-13 9.1e-13 1.06e-12 1.22e-12 1.39e-12 
01 00 01  05 04 01 0 0 0 0 0 1e-14 2e-14 4e-14 6e-14 9e-14 1.2e-13 2e-13 2.8e-13 3.7e-13 4.7e-13 5.8e-13 6.9e-13 8e-13 9.3e-13 1.05e-12 1.19e-12 
01 00 01  06 04 03 0 0 0 0 0 1e-14 1e-14 3e-14 5e-14 7e-14 1e-13 1.6e-13 2.4e-13 3.2e-13 4.2e-13 5.1e-13 6.2e-13 7.3e-13 8.4e-13 9.6e-13 1.08e-12 
01 00 01  06 04 02 0 0 0 0 0 1e-14 3e-14 6e-14 1e-13 1.5e-13 2e-13 3.3e-13 4.8e-13 6.5e-13 8.4e-13 1.03e-12 1.24e-12 1.45e-12 1.67e-12 1.89e-12 2.14e-12 
01 00 01  07 04 04 0 0 0 0 0 1e-14 1e-14 3e-14 5e-14 7e-14 1.1e-13 1.9e-13 2.9e-13 4.1e-13 5.3e-13 6.6e-13 8e-13 9.4e-13 1.08e-12 1.22e-12 1.36e-12 
01 00 01  07 04 03 0 0 0 0 0 1e-14 2e-14 5e-14 8e-14 1.3e-13 1.8e-13 3.2e-13 4.9e-13 6.8e-13 8.9e-13 1.12e-12 1.35e-12 1.59e-12 1.84e-12 2.08e-12 2.32e-12 
02 00 02  00 00 00 1.06e-11 1.15e-11 1.23e-11 1.34e-11 1.43e-11 1.49e-11 1.55e-11 1.59e-11 1.62e-11 1.65e-11 1.67e-11 1.71e-11 1.74e-11 1.76e-11 1.77e-11 1.78e-11 1.79e-11 1.8e-11 1.8e-11 1.8e-11 1.81e-11 
02 00 02  01 00 01 5.41e-11 5.26e-11 5.11e-11 4.86e-11 4.65e-11 4.48e-11 4.34e-11 4.22e-11 4.12e-11 4.03e-11 3.96e-11 3.83e-11 3.74e-11 3.67e-11 3.61e-11 3.56e-11 3.52e-11 3.48e-11 3.45e-11 3.42e-11 3.4e-11 
02 00 02  02 00 02 0 0 0 0 0 0 0 0 0 0 0 0 0 0 0 0 0 0 0 0 0 
02 00 02  03 00 03 2.59e-11 3.61e-11 4.21e-11 4.81e-11 5.04e-11 5.14e-11 5.18e-11 5.2e-11 5.21e-11 5.2e-11 5.19e-11 5.2e-11 5.18e-11 5.18e-11 5.18e-11 5.18e-11 5.18e-11 5.19e-11 5.19e-11 5.19e-11 5.19e-11 
02 00 02  04 00 04 2.09e-12 4.69e-12 7.15e-12 1.15e-11 1.52e-11 1.88e-11 2.2e-11 2.5e-11 2.77e-11 3.02e-11 3.26e-11 3.66e-11 3.99e-11 4.28e-11 4.54e-11 4.76e-11 4.96e-11 5.14e-11 5.31e-11 5.46e-11 5.59e-11 
02 00 02  05 00 05 2.4e-13 9.3e-13 1.8e-12 3.52e-12 5.04e-12 6.38e-12 7.6e-12 8.73e-12 9.77e-12 1.07e-11 1.17e-11 1.34e-11 1.48e-11 1.62e-11 1.74e-11 1.84e-11 1.95e-11 2.03e-11 2.1e-11 2.18e-11 2.24e-11 
02 00 02  06 00 06 1e-14 1e-13 2.9e-13 9.1e-13 1.71e-12 2.6e-12 3.55e-12 4.53e-12 5.51e-12 6.48e-12 7.43e-12 9.25e-12 1.1e-11 1.26e-11 1.41e-11 1.56e-11 1.7e-11 1.83e-11 1.94e-11 2.06e-11 2.17e-11 
02 00 02  07 00 07 0 2e-14 9e-14 3.6e-13 7.4e-13 1.18e-12 1.66e-12 2.19e-12 2.74e-12 3.3e-12 3.88e-12 5.04e-12 6.19e-12 7.28e-12 8.33e-12 9.32e-12 1.02e-11 1.11e-11 1.19e-11 1.26e-11 1.32e-11 
02 00 02  08 00 08 0 0 1e-14 7e-14 2.2e-13 4.6e-13 7.6e-13 1.1e-12 1.48e-12 1.88e-12 2.29e-12 3.1e-12 3.89e-12 4.68e-12 5.43e-12 6.17e-12 6.88e-12 7.59e-12 8.29e-12 9.01e-12 9.7e-12 
02 00 02  09 00 09 0 0 0 1e-14 5e-14 1.2e-13 2.2e-13 3.4e-13 4.9e-13 6.6e-13 8.6e-13 1.3e-12 1.81e-12 2.38e-12 3.01e-12 3.67e-12 4.37e-12 5.07e-12 5.79e-12 6.52e-12 7.27e-12 
02 00 02  10 00 10 0 0 0 1e-14 6e-14 1.7e-13 3.2e-13 5.2e-13 7.5e-13 1.02e-12 1.3e-12 1.88e-12 2.49e-12 3.08e-12 3.66e-12 4.22e-12 4.73e-12 5.22e-12 5.68e-12 6.12e-12 6.53e-12 
02 00 02  11 00 11 0 0 0 0 1e-14 3e-14 6e-14 1.1e-13 1.6e-13 2.3e-13 3e-13 4.6e-13 6.3e-13 8.2e-13 1.02e-12 1.23e-12 1.45e-12 1.68e-12 1.92e-12 2.18e-12 2.43e-12 
02 00 02  12 00 12 0 0 0 0 1e-14 2e-14 6e-14 1.2e-13 2.1e-13 3.2e-13 4.5e-13 7.6e-13 1.12e-12 1.53e-12 1.95e-12 2.37e-12 2.8e-12 3.22e-12 3.65e-12 4.04e-12 4.43e-12 
02 00 02  02 02 01 9e-14 4.3e-13 9.5e-13 2.12e-12 3.2e-12 4.13e-12 4.88e-12 5.56e-12 6.1e-12 6.64e-12 7.05e-12 7.77e-12 8.36e-12 8.86e-12 9.31e-12 9.72e-12 1e-11 1.03e-11 1.06e-11 1.08e-11 1.1e-11 
02 00 02  02 02 00 1e-13 4.6e-13 9.9e-13 2.14e-12 3.2e-12 4.17e-12 5.02e-12 5.82e-12 6.49e-12 7.17e-12 7.74e-12 8.85e-12 9.86e-12 1.07e-11 1.15e-11 1.23e-11 1.29e-11 1.36e-11 1.41e-11 1.47e-11 1.52e-11 
02 00 02  03 02 02 4e-14 2.9e-13 7.9e-13 2.2e-12 3.78e-12 5.35e-12 6.86e-12 8.3e-12 9.61e-12 1.08e-11 1.2e-11 1.42e-11 1.61e-11 1.79e-11 1.94e-11 2.09e-11 2.22e-11 2.34e-11 2.45e-11 2.55e-11 2.65e-11 
02 00 02  03 02 01 4e-14 2.2e-13 5.5e-13 1.32e-12 2.04e-12 2.63e-12 3.1e-12 3.47e-12 3.78e-12 4.04e-12 4.25e-12 4.59e-12 4.86e-12 5.09e-12 5.29e-12 5.47e-12 5.64e-12 5.8e-12 5.96e-12 6.11e-12 6.26e-12 
02 00 02  04 02 03 1e-14 9e-14 2.9e-13 9.5e-13 1.76e-12 2.56e-12 3.31e-12 3.99e-12 4.61e-12 5.18e-12 5.69e-12 6.59e-12 7.37e-12 8.06e-12 8.66e-12 9.2e-12 9.7e-12 1.01e-11 1.06e-11 1.1e-11 1.13e-11 
02 00 02  04 02 02 1e-14 6e-14 2e-13 6.5e-13 1.19e-12 1.76e-12 2.32e-12 2.85e-12 3.36e-12 3.84e-12 4.3e-12 5.15e-12 5.91e-12 6.61e-12 7.23e-12 7.8e-12 8.33e-12 8.83e-12 9.28e-12 9.7e-12 1.01e-11 
02 00 02  05 02 04 0 2e-14 7e-14 2.8e-13 5.7e-13 8.6e-13 1.15e-12 1.42e-12 1.68e-12 1.92e-12 2.16e-12 2.59e-12 2.98e-12 3.35e-12 3.7e-12 4.05e-12 4.36e-12 4.68e-12 4.97e-12 5.25e-12 5.53e-12 
02 00 02  05 02 03 0 3e-14 1.3e-13 5.4e-13 1.1e-12 1.68e-12 2.26e-12 2.8e-12 3.31e-12 3.79e-12 4.23e-12 5.03e-12 5.73e-12 6.37e-12 6.94e-12 7.47e-12 7.96e-12 8.43e-12 8.87e-12 9.28e-12 9.7e-12 
02 00 02  06 02 05 0 0 2e-14 1.1e-13 2.8e-13 4.9e-13 7.1e-13 9.5e-13 1.17e-12 1.39e-12 1.59e-12 1.96e-12 2.29e-12 2.59e-12 2.86e-12 3.1e-12 3.33e-12 3.53e-12 3.75e-12 3.93e-12 4.11e-12 
02 00 02  06 02 04 0 1e-14 3e-14 1.8e-13 4.2e-13 7.2e-13 1.03e-12 1.33e-12 1.64e-12 1.93e-12 2.22e-12 2.78e-12 3.29e-12 3.78e-12 4.25e-12 4.69e-12 5.12e-12 5.52e-12 5.91e-12 6.3e-12 6.67e-12 
02 00 02  07 02 06 0 0 0 2e-14 7e-14 1.3e-13 2.1e-13 2.9e-13 3.7e-13 4.6e-13 5.4e-13 6.9e-13 8.3e-13 9.6e-13 1.07e-12 1.18e-12 1.28e-12 1.37e-12 1.46e-12 1.54e-12 1.62e-12 
02 00 02  07 02 05 0 0 1e-14 1e-13 3.2e-13 6.2e-13 9.8e-13 1.37e-12 1.77e-12 2.16e-12 2.56e-12 3.32e-12 4.03e-12 4.7e-12 5.32e-12 5.9e-12 6.43e-12 6.94e-12 7.4e-12 7.85e-12 8.26e-12 
02 00 02  08 02 07 0 0 0 1e-14 2e-14 6e-14 1e-13 1.5e-13 2e-13 2.6e-13 3.2e-13 4.4e-13 5.5e-13 6.7e-13 7.7e-13 8.7e-13 9.6e-13 1.05e-12 1.13e-12 1.21e-12 1.29e-12 
02 00 02  08 02 06 0 0 0 2e-14 9e-14 2e-13 3.5e-13 5.3e-13 7.2e-13 9.2e-13 1.12e-12 1.53e-12 1.94e-12 2.34e-12 2.73e-12 3.11e-12 3.46e-12 3.82e-12 4.17e-12 4.49e-12 4.81e-12 
02 00 02  09 02 08 0 0 0 0 1e-14 2e-14 4e-14 6e-14 8e-14 1.1e-13 1.3e-13 1.8e-13 2.3e-13 2.8e-13 3.2e-13 3.7e-13 4.1e-13 4.5e-13 4.9e-13 5.3e-13 5.7e-13 
02 00 02  09 02 07 0 0 0 0 2e-14 6e-14 1.3e-13 2.1e-13 3.2e-13 4.3e-13 5.6e-13 8.5e-13 1.15e-12 1.47e-12 1.79e-12 2.09e-12 2.39e-12 2.68e-12 2.96e-12 3.21e-12 3.46e-12 
02 00 02  10 02 09 0 0 0 0 0 0 1e-14 2e-14 2e-14 3e-14 4e-14 7e-14 9e-14 1.2e-13 1.5e-13 1.8e-13 2e-13 2.4e-13 2.7e-13 3e-13 3.3e-13 
02 00 02  10 02 08 0 0 0 0 1e-14 3e-14 7e-14 1.2e-13 1.8e-13 2.6e-13 3.4e-13 5.3e-13 7.2e-13 9.3e-13 1.13e-12 1.34e-12 1.54e-12 1.73e-12 1.93e-12 2.11e-12 2.29e-12 
02 00 02  11 02 10 0 0 0 0 0 0 0 1e-14 1e-14 1e-14 2e-14 3e-14 4e-14 5e-14 6e-14 7e-14 8e-14 1e-13 1.1e-13 1.3e-13 1.4e-13 
02 00 02  11 02 09 0 0 0 0 0 1e-14 2e-14 4e-14 6e-14 9e-14 1.3e-13 2.3e-13 3.4e-13 4.7e-13 6.1e-13 7.5e-13 9e-13 1.06e-12 1.21e-12 1.37e-12 1.52e-12 
02 00 02  04 04 01 0 0 0 0 0 1e-14 2e-14 3e-14 5e-14 7e-14 9e-14 1.4e-13 2e-13 2.6e-13 3.3e-13 4e-13 4.7e-13 5.5e-13 6.2e-13 7e-13 7.8e-13 
02 00 02  04 04 00 0 0 0 0 0 1e-14 2e-14 3e-14 5e-14 8e-14 1e-13 1.6e-13 2.3e-13 3.1e-13 3.9e-13 4.8e-13 5.7e-13 6.6e-13 7.6e-13 8.6e-13 9.6e-13 
02 00 02  05 04 02 0 0 0 0 0 2e-14 4e-14 6e-14 1e-13 1.4e-13 1.9e-13 3.1e-13 4.4e-13 5.8e-13 7.4e-13 8.9e-13 1.05e-12 1.21e-12 1.37e-12 1.53e-12 1.68e-12 
02 00 02  05 04 01 0 0 0 0 0 1e-14 2e-14 3e-14 5e-14 7e-14 1e-13 1.5e-13 2.2e-13 3e-13 3.8e-13 4.7e-13 5.7e-13 6.7e-13 7.7e-13 8.9e-13 1e-12 
02 00 02  06 04 03 0 0 0 0 0 2e-14 4e-14 7e-14 1.2e-13 1.8e-13 2.4e-13 4e-13 5.9e-13 7.9e-13 1.02e-12 1.26e-12 1.51e-12 1.78e-12 2.06e-12 2.34e-12 2.63e-12 
02 00 02  06 04 02 0 0 0 0 0 1e-14 1e-14 3e-14 4e-14 7e-14 9e-14 1.5e-13 2.3e-13 3.2e-13 4.1e-13 5.1e-13 6.2e-13 7.3e-13 8.3e-13 9.4e-13 1.04e-12 
02 00 02  07 04 04 0 0 0 0 0 1e-14 2e-14 5e-14 8e-14 1.3e-13 1.8e-13 3.1e-13 4.7e-13 6.5e-13 8.5e-13 1.06e-12 1.27e-12 1.48e-12 1.7e-12 1.93e-12 2.14e-12 
02 00 02  07 04 03 0 0 0 0 0 1e-14 1e-14 3e-14 5e-14 8e-14 1.1e-13 2e-13 3e-13 4.2e-13 5.6e-13 7.1e-13 8.7e-13 1.04e-12 1.22e-12 1.4e-12 1.58e-12 
03 00 03  00 00 00 3.02e-12 2.88e-12 2.8e-12 2.77e-12 2.84e-12 2.94e-12 3.06e-12 3.16e-12 3.26e-12 3.35e-12 3.43e-12 3.56e-12 3.65e-12 3.73e-12 3.79e-12 3.84e-12 3.88e-12 3.9e-12 3.93e-12 3.94e-12 3.95e-12 
03 00 03  01 00 01 1.23e-11 1.29e-11 1.36e-11 1.52e-11 1.68e-11 1.83e-11 1.97e-11 2.08e-11 2.19e-11 2.28e-11 2.36e-11 2.49e-11 2.59e-11 2.68e-11 2.75e-11 2.81e-11 2.86e-11 2.9e-11 2.94e-11 2.97e-11 3e-11 
03 00 03  02 00 02 5.28e-11 5.19e-11 5.08e-11 4.87e-11 4.68e-11 4.53e-11 4.41e-11 4.31e-11 4.24e-11 4.17e-11 4.12e-11 4.05e-11 3.99e-11 3.95e-11 3.92e-11 3.9e-11 3.88e-11 3.87e-11 3.86e-11 3.85e-11 3.84e-11 
03 00 03  03 00 03 0 0 0 0 0 0 0 0 0 0 0 0 0 0 0 0 0 0 0 0 0 
03 00 03  04 00 04 1.91e-11 2.89e-11 3.49e-11 4.1e-11 4.36e-11 4.47e-11 4.52e-11 4.55e-11 4.57e-11 4.58e-11 4.58e-11 4.61e-11 4.63e-11 4.67e-11 4.7e-11 4.74e-11 4.77e-11 4.8e-11 4.82e-11 4.86e-11 4.88e-11 
03 00 03  05 00 05 1.05e-12 2.82e-12 4.66e-12 8.04e-12 1.11e-11 1.4e-11 1.67e-11 1.91e-11 2.14e-11 2.36e-11 2.56e-11 2.91e-11 3.21e-11 3.49e-11 3.71e-11 3.92e-11 4.1e-11 4.27e-11 4.43e-11 4.56e-11 4.7e-11 
03 00 03  06 00 06 8e-14 4.3e-13 1e-12 2.35e-12 3.67e-12 4.88e-12 5.99e-12 7.01e-12 7.96e-12 8.85e-12 9.68e-12 1.12e-11 1.25e-11 1.37e-11 1.47e-11 1.57e-11 1.65e-11 1.73e-11 1.79e-11 1.85e-11 1.9e-11 
03 00 03  07 00 07 0 2e-14 9e-14 4.2e-13 9.6e-13 1.64e-12 2.41e-12 3.23e-12 4.06e-12 4.9e-12 5.72e-12 7.32e-12 8.84e-12 1.03e-11 1.16e-11 1.29e-11 1.41e-11 1.52e-11 1.63e-11 1.73e-11 1.82e-11 
03 00 03  08 00 08 0 0 2e-14 1.1e-13 2.9e-13 5.5e-13 8.8e-13 1.26e-12 1.68e-12 2.14e-12 2.61e-12 3.62e-12 4.63e-12 5.64e-12 6.62e-12 7.58e-12 8.48e-12 9.32e-12 1.01e-11 1.09e-11 1.16e-11 
03 00 03  09 00 09 0 0 0 4e-14 1.5e-13 3.4e-13 5.9e-13 8.9e-13 1.23e-12 1.58e-12 1.95e-12 2.72e-12 3.49e-12 4.24e-12 4.97e-12 5.66e-12 6.31e-12 6.94e-12 7.55e-12 8.12e-12 8.67e-12 
03 00 03  10 00 10 0 0 0 1e-14 2e-14 6e-14 1.2e-13 2e-13 2.9e-13 4e-13 5.3e-13 8.2e-13 1.17e-12 1.54e-12 1.96e-12 2.4e-12 2.85e-12 3.32e-12 3.82e-12 4.31e-12 4.81e-12 
03 00 03  11 00 11 0 0 0 0 3e-14 8e-14 1.7e-13 3e-13 4.6e-13 6.4e-13 8.3e-13 1.26e-12 1.71e-12 2.19e-12 2.66e-12 3.13e-12 3.61e-12 4.09e-12 4.58e-12 5.05e-12 5.54e-12 
03 00 03  12 00 12 0 0 0 0 0 1e-14 3e-14 6e-14 9e-14 1.4e-13 1.9e-13 3e-13 4.4e-13 6.1e-13 8e-13 1.01e-12 1.24e-12 1.5e-12 1.79e-12 2.09e-12 2.42e-12 
03 00 03  02 02 01 1.9e-13 6.6e-13 1.24e-12 2.32e-12 3.23e-12 3.95e-12 4.54e-12 4.99e-12 5.42e-12 5.8e-12 6.14e-12 6.68e-12 7.2e-12 7.61e-12 8.04e-12 8.39e-12 8.77e-12 9.07e-12 9.37e-12 9.71e-12 9.99e-12 
03 00 03  02 02 00 3.4e-13 1.13e-12 2.05e-12 3.69e-12 4.95e-12 5.94e-12 6.67e-12 7.28e-12 7.77e-12 8.18e-12 8.52e-12 9.11e-12 9.51e-12 9.83e-12 1.01e-11 1.04e-11 1.06e-11 1.08e-11 1.1e-11 1.12e-11 1.14e-11 
03 00 03  03 02 02 1.2e-13 5.4e-13 1.19e-12 2.62e-12 3.94e-12 5.07e-12 5.97e-12 6.73e-12 7.32e-12 7.88e-12 8.3e-12 9.05e-12 9.64e-12 1.01e-11 1.05e-11 1.08e-11 1.11e-11 1.13e-11 1.16e-11 1.17e-11 1.2e-11 
03 00 03  03 02 01 1e-13 4.6e-13 9.9e-13 2.14e-12 3.2e-12 4.17e-12 5.02e-12 5.82e-12 6.55e-12 7.23e-12 7.87e-12 9.05e-12 1.01e-11 1.1e-11 1.19e-11 1.27e-11 1.34e-11 1.41e-11 1.48e-11 1.54e-11 1.59e-11 
03 00 03  04 02 03 3e-14 2.2e-13 6.2e-13 1.78e-12 3.1e-12 4.43e-12 5.71e-12 6.93e-12 8.09e-12 9.2e-12 1.02e-11 1.21e-11 1.38e-11 1.54e-11 1.68e-11 1.81e-11 1.93e-11 2.04e-11 2.14e-11 2.24e-11 2.33e-11 
03 00 03  04 02 02 2e-14 1.3e-13 3.3e-13 8e-13 1.23e-12 1.6e-12 1.91e-12 2.18e-12 2.4e-12 2.6e-12 2.77e-12 3.05e-12 3.28e-12 3.46e-12 3.61e-12 3.74e-12 3.85e-12 3.96e-12 4.05e-12 4.13e-12 4.23e-12 
03 00 03  05 02 04 1e-14 8e-14 2.9e-13 1.03e-12 1.92e-12 2.81e-12 3.63e-12 4.38e-12 5.06e-12 5.67e-12 6.23e-12 7.22e-12 8.06e-12 8.79e-12 9.45e-12 1e-11 1.06e-11 1.11e-11 1.15e-11 1.2e-11 1.23e-11 
03 00 03  05 02 03 0 5e-14 1.6e-13 5.5e-13 1.01e-12 1.46e-12 1.88e-12 2.27e-12 2.63e-12 2.97e-12 3.3e-12 3.88e-12 4.41e-12 4.9e-12 5.33e-12 5.75e-12 6.12e-12 6.49e-12 6.82e-12 7.13e-12 7.43e-12 
03 00 03  06 02 05 0 1e-14 4e-14 2.3e-13 5.1e-13 8.3e-13 1.16e-12 1.47e-12 1.77e-12 2.05e-12 2.31e-12 2.8e-12 3.23e-12 3.62e-12 3.97e-12 4.31e-12 4.62e-12 4.92e-12 5.19e-12 5.44e-12 5.69e-12 
03 00 03  06 02 04 0 1e-14 5e-14 2.5e-13 5.6e-13 9.1e-13 1.26e-12 1.61e-12 1.95e-12 2.27e-12 2.59e-12 3.18e-12 3.74e-12 4.26e-12 4.73e-12 5.18e-12 5.59e-12 5.97e-12 6.33e-12 6.65e-12 6.96e-12 
03 00 03  07 02 06 0 0 1e-14 9e-14 2.6e-13 4.9e-13 7.4e-13 1.01e-12 1.27e-12 1.53e-12 1.77e-12 2.23e-12 2.62e-12 2.99e-12 3.33e-12 3.62e-12 3.9e-12 4.15e-12 4.39e-12 4.61e-12 4.82e-12 
03 00 03  07 02 05 0 0 1e-14 1e-13 2.6e-13 4.8e-13 7.2e-13 9.7e-13 1.23e-12 1.49e-12 1.74e-12 2.25e-12 2.75e-12 3.23e-12 3.7e-12 4.15e-12 4.6e-12 5.01e-12 5.41e-12 5.81e-12 6.18e-12 
03 00 03  08 02 07 0 0 0 2e-14 7e-14 1.4e-13 2.4e-13 3.4e-13 4.5e-13 5.6e-13 6.7e-13 8.8e-13 1.06e-12 1.23e-12 1.4e-12 1.56e-12 1.7e-12 1.86e-12 2e-12 2.15e-12 2.28e-12 
03 00 03  08 02 06 0 0 0 4e-14 1.3e-13 2.9e-13 4.9e-13 7.1e-13 9.5e-13 1.21e-12 1.46e-12 1.98e-12 2.49e-12 2.99e-12 3.47e-12 3.93e-12 4.37e-12 4.8e-12 5.2e-12 5.58e-12 5.93e-12 
03 00 03  09 02 08 0 0 0 0 2e-14 5e-14 9e-14 1.4e-13 1.9e-13 2.5e-13 3.1e-13 4.4e-13 5.5e-13 6.7e-13 7.7e-13 8.7e-13 9.7e-13 1.06e-12 1.14e-12 1.23e-12 1.31e-12 
03 00 03  09 02 07 0 0 0 1e-14 4e-14 1.1e-13 2.1e-13 3.2e-13 4.6e-13 6e-13 7.5e-13 1.05e-12 1.37e-12 1.68e-12 1.99e-12 2.3e-12 2.61e-12 2.91e-12 3.22e-12 3.52e-12 3.84e-12 
03 00 03  10 02 09 0 0 0 0 1e-14 2e-14 3e-14 6e-14 9e-14 1.2e-13 1.5e-13 2.3e-13 3.1e-13 3.9e-13 4.7e-13 5.4e-13 6.2e-13 6.9e-13 7.7e-13 8.4e-13 9e-13 
03 00 03  10 02 08 0 0 0 0 1e-14 3e-14 6e-14 1.2e-13 1.8e-13 2.6e-13 3.5e-13 5.6e-13 7.9e-13 1.05e-12 1.31e-12 1.57e-12 1.82e-12 2.08e-12 2.33e-12 2.56e-12 2.8e-12 
03 00 03  11 02 10 0 0 0 0 0 0 1e-14 1e-14 2e-14 3e-14 4e-14 6e-14 9e-14 1.2e-13 1.5e-13 1.9e-13 2.3e-13 2.8e-13 3.4e-13 4e-13 4.7e-13 
03 00 03  11 02 09 0 0 0 0 0 1e-14 3e-14 6e-14 1e-13 1.5e-13 2e-13 3.3e-13 4.7e-13 6.2e-13 7.8e-13 9.3e-13 1.08e-12 1.24e-12 1.4e-12 1.55e-12 1.7e-12 
03 00 03  04 04 01 0 0 0 0 0 1e-14 2e-14 4e-14 6e-14 9e-14 1.1e-13 1.8e-13 2.6e-13 3.4e-13 4.3e-13 5.2e-13 6.1e-13 7.1e-13 8.1e-13 9.2e-13 1.03e-12 
03 00 03  04 04 00 0 0 0 0 0 1e-14 3e-14 5e-14 7e-14 1e-13 1.3e-13 2.1e-13 2.9e-13 3.8e-13 4.7e-13 5.6e-13 6.5e-13 7.4e-13 8.3e-13 9.1e-13 1e-12 
03 00 03  05 04 02 0 0 0 0 1e-14 2e-14 4e-14 6e-14 9e-14 1.3e-13 1.7e-13 2.6e-13 3.6e-13 4.7e-13 5.7e-13 6.9e-13 7.9e-13 9e-13 1e-12 1.11e-12 1.22e-12 
03 00 03  05 04 01 0 0 0 0 0 1e-14 3e-14 6e-14 9e-14 1.3e-13 1.7e-13 2.8e-13 4e-13 5.3e-13 6.8e-13 8.2e-13 9.8e-13 1.14e-12 1.3e-12 1.47e-12 1.64e-12 
03 00 03  06 04 03 0 0 0 0 0 1e-14 3e-14 6e-14 1e-13 1.4e-13 1.9e-13 3.1e-13 4.5e-13 5.9e-13 7.5e-13 9.1e-13 1.08e-12 1.25e-12 1.43e-12 1.6e-12 1.77e-12 
03 00 03  06 04 02 0 0 0 0 0 1e-14 2e-14 4e-14 6e-14 1e-13 1.3e-13 2.3e-13 3.4e-13 4.7e-13 6.1e-13 7.7e-13 9.3e-13 1.1e-12 1.28e-12 1.46e-12 1.66e-12 
03 00 03  07 04 04 0 0 0 0 0 1e-14 4e-14 7e-14 1.2e-13 1.9e-13 2.6e-13 4.5e-13 6.8e-13 9.3e-13 1.19e-12 1.47e-12 1.76e-12 2.05e-12 2.35e-12 2.64e-12 2.93e-12 
03 00 03  07 04 03 0 0 0 0 0 0 1e-14 2e-14 4e-14 6e-14 8e-14 1.4e-13 2e-13 2.8e-13 3.7e-13 4.6e-13 5.6e-13 6.6e-13 7.6e-13 8.7e-13 9.8e-13 
04 00 04  00 00 00 4.28e-12 3.72e-12 3.33e-12 2.93e-12 2.81e-12 2.83e-12 2.91e-12 3.02e-12 3.14e-12 3.26e-12 3.38e-12 3.61e-12 3.82e-12 4.01e-12 4.18e-12 4.34e-12 4.48e-12 4.6e-12 4.72e-12 4.82e-12 4.91e-12 
04 00 04  01 00 01 6.35e-12 5.92e-12 5.66e-12 5.48e-12 5.55e-12 5.73e-12 5.98e-12 6.24e-12 6.51e-12 6.76e-12 7.01e-12 7.45e-12 7.82e-12 8.14e-12 8.41e-12 8.63e-12 8.82e-12 8.97e-12 9.1e-12 9.21e-12 9.3e-12 
04 00 04  02 00 02 1.34e-11 1.33e-11 1.35e-11 1.44e-11 1.56e-11 1.7e-11 1.84e-11 1.97e-11 2.09e-11 2.2e-11 2.31e-11 2.49e-11 2.64e-11 2.77e-11 2.89e-11 2.99e-11 3.08e-11 3.16e-11 3.24e-11 3.31e-11 3.37e-11 
04 00 04  03 00 03 6e-11 5.71e-11 5.46e-11 5.08e-11 4.81e-11 4.6e-11 4.44e-11 4.32e-11 4.23e-11 4.16e-11 4.1e-11 4.03e-11 3.98e-11 3.96e-11 3.95e-11 3.95e-11 3.95e-11 3.96e-11 3.96e-11 3.97e-11 3.98e-11 
04 00 04  04 00 04 0 0 0 0 0 0 0 0 0 0 0 0 0 0 0 0 0 0 0 0 0 
04 00 04  05 00 05 1.06e-11 1.88e-11 2.46e-11 3.15e-11 3.51e-11 3.7e-11 3.81e-11 3.89e-11 3.95e-11 4e-11 4.03e-11 4.09e-11 4.15e-11 4.2e-11 4.25e-11 4.3e-11 4.33e-11 4.38e-11 4.41e-11 4.44e-11 4.47e-11 
04 00 04  06 00 06 5e-13 1.66e-12 3.07e-12 5.82e-12 8.45e-12 1.1e-11 1.33e-11 1.56e-11 1.78e-11 1.98e-11 2.16e-11 2.51e-11 2.81e-11 3.08e-11 3.31e-11 3.53e-11 3.72e-11 3.9e-11 4.06e-11 4.21e-11 4.35e-11 
04 00 04  07 00 07 2e-14 1.6e-13 4.6e-13 1.34e-12 2.35e-12 3.37e-12 4.36e-12 5.29e-12 6.18e-12 7.01e-12 7.8e-12 9.24e-12 1.05e-11 1.17e-11 1.27e-11 1.38e-11 1.47e-11 1.54e-11 1.62e-11 1.69e-11 1.76e-11 
04 00 04  08 00 08 0 1e-14 4e-14 2.5e-13 6.3e-13 1.15e-12 1.75e-12 2.41e-12 3.11e-12 3.81e-12 4.52e-12 5.93e-12 7.29e-12 8.59e-12 9.82e-12 1.1e-11 1.21e-11 1.32e-11 1.41e-11 1.5e-11 1.59e-11 
04 00 04  09 00 09 0 0 0 4e-14 1.3e-13 2.8e-13 4.9e-13 7.4e-13 1.03e-12 1.36e-12 1.7e-12 2.43e-12 3.19e-12 3.95e-12 4.72e-12 5.46e-12 6.19e-12 6.9e-12 7.58e-12 8.25e-12 8.9e-12 
04 00 04  10 00 10 0 0 0 2e-14 9e-14 2.3e-13 4.1e-13 6.5e-13 9.1e-13 1.2e-12 1.49e-12 2.11e-12 2.73e-12 3.34e-12 3.94e-12 4.5e-12 5.05e-12 5.56e-12 6.05e-12 6.53e-12 6.98e-12 
04 00 04  11 00 11 0 0 0 0 1e-14 3e-14 7e-14 1.1e-13 1.8e-13 2.5e-13 3.4e-13 5.5e-13 8e-13 1.08e-12 1.38e-12 1.7e-12 2.04e-12 2.39e-12 2.75e-12 3.1e-12 3.46e-12 
04 00 04  12 00 12 0 0 0 0 1e-14 4e-14 9e-14 1.8e-13 2.8e-13 4.1e-13 5.6e-13 9.1e-13 1.29e-12 1.69e-12 2.11e-12 2.55e-12 2.99e-12 3.44e-12 3.89e-12 4.34e-12 4.79e-12 
04 00 04  02 02 01 1.25e-12 2.63e-12 3.81e-12 5.56e-12 6.72e-12 7.52e-12 8.07e-12 8.48e-12 8.83e-12 9.07e-12 9.26e-12 9.52e-12 9.69e-12 9.84e-12 9.94e-12 1.01e-11 1.01e-11 1.02e-11 1.03e-11 1.04e-11 1.05e-11 
04 00 04  02 02 00 8.3e-13 1.69e-12 2.4e-12 3.42e-12 4.07e-12 4.56e-12 4.91e-12 5.19e-12 5.4e-12 5.57e-12 5.71e-12 5.98e-12 6.19e-12 6.41e-12 6.56e-12 6.75e-12 6.92e-12 7.08e-12 7.23e-12 7.38e-12 7.52e-12 
04 00 04  03 02 02 2.4e-13 7.1e-13 1.21e-12 2.09e-12 2.76e-12 3.3e-12 3.74e-12 4.12e-12 4.44e-12 4.73e-12 4.99e-12 5.46e-12 5.87e-12 6.24e-12 6.6e-12 6.85e-12 7.16e-12 7.45e-12 7.67e-12 7.95e-12 8.15e-12 
04 00 04  03 02 01 4.5e-13 1.32e-12 2.27e-12 3.94e-12 5.23e-12 6.25e-12 7.03e-12 7.7e-12 8.28e-12 8.72e-12 9.1e-12 9.8e-12 1.03e-11 1.07e-11 1.11e-11 1.13e-11 1.16e-11 1.18e-11 1.2e-11 1.21e-11 1.23e-11 
04 00 04  04 02 03 1.3e-13 5.9e-13 1.26e-12 2.68e-12 3.94e-12 4.95e-12 5.79e-12 6.48e-12 7.05e-12 7.52e-12 7.93e-12 8.58e-12 9.14e-12 9.54e-12 9.85e-12 1.02e-11 1.04e-11 1.07e-11 1.08e-11 1.11e-11 1.13e-11 
04 00 04  04 02 02 1.2e-13 5.6e-13 1.18e-12 2.5e-12 3.7e-12 4.75e-12 5.7e-12 6.53e-12 7.27e-12 8e-12 8.68e-12 9.86e-12 1.09e-11 1.19e-11 1.28e-11 1.36e-11 1.44e-11 1.5e-11 1.57e-11 1.63e-11 1.68e-11 
04 00 04  05 02 04 4e-14 2.9e-13 8e-13 2.14e-12 3.5e-12 4.74e-12 5.87e-12 6.9e-12 7.8e-12 8.71e-12 9.48e-12 1.1e-11 1.23e-11 1.35e-11 1.46e-11 1.56e-11 1.65e-11 1.74e-11 1.81e-11 1.88e-11 1.95e-11 
04 00 04  05 02 03 1e-14 9e-14 2.5e-13 7e-13 1.14e-12 1.53e-12 1.86e-12 2.13e-12 2.38e-12 2.59e-12 2.77e-12 3.11e-12 3.39e-12 3.62e-12 3.84e-12 4.03e-12 4.19e-12 4.33e-12 4.46e-12 4.58e-12 4.69e-12 
04 00 04  06 02 05 0 5e-14 1.9e-13 7.9e-13 1.59e-12 2.43e-12 3.23e-12 3.98e-12 4.67e-12 5.29e-12 5.86e-12 6.88e-12 7.76e-12 8.55e-12 9.25e-12 9.79e-12 1.04e-11 1.09e-11 1.14e-11 1.18e-11 1.23e-11 
04 00 04  06 02 04 0 2e-14 8e-14 3.2e-13 6.5e-13 1e-12 1.35e-12 1.69e-12 1.99e-12 2.28e-12 2.54e-12 3.02e-12 3.43e-12 3.79e-12 4.12e-12 4.42e-12 4.68e-12 4.93e-12 5.16e-12 5.36e-12 5.55e-12 
04 00 04  07 02 06 0 1e-14 3e-14 2e-13 4.8e-13 8.3e-13 1.18e-12 1.53e-12 1.85e-12 2.16e-12 2.46e-12 2.99e-12 3.47e-12 3.91e-12 4.32e-12 4.71e-12 5.08e-12 5.43e-12 5.76e-12 6.09e-12 6.4e-12 
04 00 04  07 02 05 0 0 2e-14 1.2e-13 3e-13 5e-13 7.2e-13 9.3e-13 1.14e-12 1.35e-12 1.55e-12 1.93e-12 2.3e-12 2.66e-12 2.99e-12 3.32e-12 3.62e-12 3.91e-12 4.18e-12 4.43e-12 4.67e-12 
04 00 04  08 02 07 0 0 1e-14 6e-14 2e-13 4.1e-13 6.5e-13 9.1e-13 1.17e-12 1.42e-12 1.67e-12 2.13e-12 2.55e-12 2.92e-12 3.26e-12 3.57e-12 3.85e-12 4.11e-12 4.36e-12 4.57e-12 4.78e-12 
04 00 04  08 02 06 0 0 0 5e-14 1.5e-13 2.9e-13 4.7e-13 6.6e-13 8.6e-13 1.06e-12 1.26e-12 1.67e-12 2.07e-12 2.46e-12 2.83e-12 3.21e-12 3.58e-12 3.95e-12 4.33e-12 4.7e-12 5.08e-12 
04 00 04  09 02 08 0 0 0 1e-14 6e-14 1.3e-13 2.4e-13 3.6e-13 4.9e-13 6.2e-13 7.6e-13 1.02e-12 1.27e-12 1.5e-12 1.72e-12 1.93e-12 2.13e-12 2.32e-12 2.5e-12 2.67e-12 2.84e-12 
04 00 04  09 02 07 0 0 0 2e-14 7e-14 1.6e-13 2.9e-13 4.4e-13 6e-13 7.8e-13 9.6e-13 1.33e-12 1.71e-12 2.07e-12 2.43e-12 2.77e-12 3.11e-12 3.42e-12 3.73e-12 4.02e-12 4.3e-12 
04 00 04  10 02 09 0 0 0 0 1e-14 4e-14 7e-14 1.2e-13 1.8e-13 2.4e-13 3e-13 4.4e-13 5.9e-13 7.3e-13 8.8e-13 1.02e-12 1.16e-12 1.3e-12 1.45e-12 1.59e-12 1.72e-12 
04 00 04  10 02 08 0 0 0 0 2e-14 6e-14 1.2e-13 2e-13 2.9e-13 4e-13 5.2e-13 7.7e-13 1.03e-12 1.29e-12 1.56e-12 1.83e-12 2.09e-12 2.36e-12 2.63e-12 2.89e-12 3.15e-12 
04 00 04  11 02 10 0 0 0 0 0 1e-14 3e-14 5e-14 7e-14 1e-13 1.4e-13 2.1e-13 2.9e-13 3.8e-13 4.6e-13 5.5e-13 6.3e-13 7.2e-13 8.1e-13 9.1e-13 1e-12 
04 00 04  11 02 09 0 0 0 0 0 1e-14 3e-14 6e-14 1e-13 1.5e-13 2.1e-13 3.5e-13 5.2e-13 7.2e-13 9.2e-13 1.15e-12 1.38e-12 1.62e-12 1.87e-12 2.12e-12 2.37e-12 
04 00 04  04 04 01 0 0 0 0 1e-14 2e-14 4e-14 7e-14 1e-13 1.4e-13 1.8e-13 2.7e-13 3.7e-13 4.7e-13 5.8e-13 6.8e-13 7.8e-13 8.8e-13 9.8e-13 1.08e-12 1.18e-12 
04 00 04  04 04 00 0 0 0 0 1e-14 2e-14 4e-14 6e-14 9e-14 1.3e-13 1.7e-13 2.6e-13 3.5e-13 4.5e-13 5.5e-13 6.5e-13 7.5e-13 8.4e-13 9.4e-13 1.03e-12 1.12e-12 
04 00 04  05 04 02 0 0 0 0 0 1e-14 3e-14 5e-14 9e-14 1.2e-13 1.6e-13 2.6e-13 3.6e-13 4.8e-13 6e-13 7.1e-13 8.3e-13 9.5e-13 1.07e-12 1.2e-12 1.32e-12 
04 00 04  05 04 01 0 0 0 0 1e-14 2e-14 5e-14 8e-14 1.2e-13 1.7e-13 2.3e-13 3.4e-13 4.7e-13 6.1e-13 7.5e-13 8.9e-13 1.03e-12 1.16e-12 1.3e-12 1.43e-12 1.56e-12 
04 00 04  06 04 03 0 0 0 0 0 1e-14 2e-14 4e-14 6e-14 8e-14 1.1e-13 1.8e-13 2.6e-13 3.4e-13 4.4e-13 5.3e-13 6.3e-13 7.4e-13 8.3e-13 9.4e-13 1.04e-12 
04 00 04  06 04 02 0 0 0 0 1e-14 2e-14 4e-14 7e-14 1.2e-13 1.7e-13 2.3e-13 3.7e-13 5.2e-13 6.9e-13 8.7e-13 1.05e-12 1.23e-12 1.41e-12 1.59e-12 1.77e-12 1.94e-12 
04 00 04  07 04 04 0 0 0 0 0 1e-14 2e-14 5e-14 8e-14 1.2e-13 1.6e-13 2.7e-13 3.9e-13 5.2e-13 6.6e-13 8.1e-13 9.6e-13 1.11e-12 1.26e-12 1.41e-12 1.56e-12 
04 00 04  07 04 03 0 0 0 0 0 1e-14 3e-14 6e-14 9e-14 1.4e-13 1.9e-13 3.3e-13 4.8e-13 6.6e-13 8.5e-13 1.05e-12 1.26e-12 1.47e-12 1.69e-12 1.91e-12 2.13e-12 
05 00 05  00 00 00 1.18e-12 1.13e-12 1.09e-12 1.05e-12 1.05e-12 1.08e-12 1.14e-12 1.22e-12 1.3e-12 1.39e-12 1.47e-12 1.64e-12 1.79e-12 1.93e-12 2.05e-12 2.16e-12 2.26e-12 2.34e-12 2.42e-12 2.49e-12 2.55e-12 
05 00 05  01 00 01 3.53e-12 3.24e-12 3.09e-12 3.06e-12 3.22e-12 3.49e-12 3.79e-12 4.11e-12 4.43e-12 4.75e-12 5.05e-12 5.61e-12 6.13e-12 6.6e-12 7.03e-12 7.42e-12 7.78e-12 8.11e-12 8.42e-12 8.71e-12 8.97e-12 
05 00 05  02 00 02 7.34e-12 6.89e-12 6.64e-12 6.48e-12 6.54e-12 6.71e-12 6.95e-12 7.22e-12 7.5e-12 7.78e-12 8.07e-12 8.61e-12 9.11e-12 9.56e-12 9.97e-12 1.03e-11 1.07e-11 1.1e-11 1.12e-11 1.15e-11 1.17e-11 
05 00 05  03 00 03 1.55e-11 1.46e-11 1.43e-11 1.46e-11 1.55e-11 1.67e-11 1.79e-11 1.91e-11 2.02e-11 2.13e-11 2.23e-11 2.41e-11 2.56e-11 2.7e-11 2.81e-11 2.92e-11 3.01e-11 3.1e-11 3.18e-11 3.25e-11 3.32e-11 
05 00 05  04 00 04 5e-11 4.92e-11 4.82e-11 4.62e-11 4.44e-11 4.29e-11 4.17e-11 4.09e-11 4.02e-11 3.97e-11 3.93e-11 3.87e-11 3.85e-11 3.83e-11 3.83e-11 3.84e-11 3.84e-11 3.85e-11 3.86e-11 3.87e-11 3.88e-11 
05 00 05  05 00 05 0 0 0 0 0 0 0 0 0 0 0 0 0 0 0 0 0 0 0 0 0 
05 00 05  06 00 06 7.23e-12 1.41e-11 1.94e-11 2.6e-11 2.96e-11 3.17e-11 3.31e-11 3.42e-11 3.49e-11 3.56e-11 3.61e-11 3.7e-11 3.79e-11 3.86e-11 3.92e-11 3.98e-11 4.04e-11 4.1e-11 4.15e-11 4.21e-11 4.25e-11 
05 00 05  07 00 07 1.6e-13 7.5e-13 1.65e-12 3.81e-12 6.09e-12 8.36e-12 1.05e-11 1.27e-11 1.47e-11 1.66e-11 1.84e-11 2.18e-11 2.46e-11 2.73e-11 2.97e-11 3.18e-11 3.37e-11 3.56e-11 3.71e-11 3.85e-11 3.98e-11 
05 00 05  08 00 08 1e-14 6e-14 2.2e-13 7.8e-13 1.55e-12 2.39e-12 3.24e-12 4.08e-12 4.9e-12 5.67e-12 6.4e-12 7.76e-12 8.98e-12 1.01e-11 1.1e-11 1.2e-11 1.27e-11 1.35e-11 1.42e-11 1.49e-11 1.55e-11 
05 00 05  09 00 09 0 0 2e-14 1.4e-13 4e-13 7.8e-13 1.24e-12 1.77e-12 2.33e-12 2.92e-12 3.52e-12 4.74e-12 5.96e-12 7.14e-12 8.28e-12 9.38e-12 1.04e-11 1.14e-11 1.23e-11 1.32e-11 1.4e-11 
05 00 05  10 00 10 0 0 0 2e-14 6e-14 1.5e-13 2.8e-13 4.6e-13 6.7e-13 9.2e-13 1.18e-12 1.78e-12 2.43e-12 3.09e-12 3.78e-12 4.45e-12 5.12e-12 5.78e-12 6.42e-12 7.05e-12 7.66e-12 
05 00 05  11 00 11 0 0 0 1e-14 5e-14 1.4e-13 2.6e-13 4.3e-13 6.3e-13 8.4e-13 1.07e-12 1.57e-12 2.09e-12 2.62e-12 3.16e-12 3.71e-12 4.25e-12 4.8e-12 5.34e-12 5.89e-12 6.43e-12 
05 00 05  12 00 12 0 0 0 0 1e-14 2e-14 4e-14 7e-14 1.2e-13 1.7e-13 2.4e-13 4.1e-13 6.3e-13 8.8e-13 1.17e-12 1.5e-12 1.85e-12 2.23e-12 2.64e-12 3.06e-12 3.51e-12 
05 00 05  02 02 01 3.6e-12 3.96e-12 4.07e-12 4.13e-12 4.11e-12 4.14e-12 4.16e-12 4.18e-12 4.2e-12 4.21e-12 4.23e-12 4.27e-12 4.32e-12 4.37e-12 4.42e-12 4.52e-12 4.57e-12 4.63e-12 4.72e-12 4.77e-12 4.87e-12 
05 00 05  02 02 00 5.2e-12 6.21e-12 6.8e-12 7.5e-12 7.91e-12 8.2e-12 8.38e-12 8.48e-12 8.56e-12 8.62e-12 8.67e-12 8.75e-12 8.76e-12 8.76e-12 8.79e-12 8.81e-12 8.79e-12 8.81e-12 8.82e-12 8.83e-12 8.85e-12 
05 00 05  03 02 02 2.35e-12 3.94e-12 5.06e-12 6.49e-12 7.36e-12 7.95e-12 8.38e-12 8.7e-12 8.95e-12 9.2e-12 9.36e-12 9.61e-12 9.84e-12 9.98e-12 1.01e-11 1.02e-11 1.02e-11 1.03e-11 1.04e-11 1.04e-11 1.05e-11 
05 00 05  03 02 01 1.81e-12 3e-12 3.84e-12 4.95e-12 5.59e-12 5.95e-12 6.27e-12 6.46e-12 6.59e-12 6.74e-12 6.86e-12 7.04e-12 7.23e-12 7.39e-12 7.52e-12 7.71e-12 7.82e-12 7.99e-12 8.15e-12 8.3e-12 8.4e-12 
05 00 05  04 02 03 3e-13 8.2e-13 1.35e-12 2.25e-12 2.92e-12 3.43e-12 3.83e-12 4.17e-12 4.46e-12 4.72e-12 4.96e-12 5.39e-12 5.77e-12 6.13e-12 6.45e-12 6.76e-12 7.05e-12 7.3e-12 7.59e-12 7.8e-12 8.08e-12 
05 00 05  04 02 02 7.7e-13 2e-12 3.23e-12 5.24e-12 6.71e-12 7.82e-12 8.69e-12 9.37e-12 9.88e-12 1.04e-11 1.08e-11 1.14e-11 1.19e-11 1.24e-11 1.27e-11 1.3e-11 1.32e-11 1.35e-11 1.37e-11 1.39e-11 1.41e-11 
05 00 05  05 02 04 1.7e-13 7.9e-13 1.63e-12 3.26e-12 4.53e-12 5.5e-12 6.2e-12 6.78e-12 7.27e-12 7.64e-12 7.99e-12 8.51e-12 8.93e-12 9.24e-12 9.54e-12 9.8e-12 9.93e-12 1.01e-11 1.03e-11 1.04e-11 1.05e-11 
05 00 05  05 02 03 1e-13 5e-13 1.1e-12 2.45e-12 3.73e-12 4.87e-12 5.88e-12 6.78e-12 7.66e-12 8.41e-12 9.11e-12 1.05e-11 1.16e-11 1.27e-11 1.37e-11 1.46e-11 1.55e-11 1.63e-11 1.7e-11 1.77e-11 1.84e-11 
05 00 05  06 02 05 2e-14 1.6e-13 4.8e-13 1.44e-12 2.52e-12 3.57e-12 4.56e-12 5.5e-12 6.36e-12 7.1e-12 7.84e-12 9.18e-12 1.03e-11 1.13e-11 1.23e-11 1.32e-11 1.4e-11 1.48e-11 1.55e-11 1.62e-11 1.69e-11 
05 00 05  06 02 04 1e-14 7e-14 2.2e-13 6.4e-13 1.09e-12 1.48e-12 1.81e-12 2.1e-12 2.33e-12 2.54e-12 2.72e-12 3.03e-12 3.29e-12 3.51e-12 3.72e-12 3.9e-12 4.07e-12 4.22e-12 4.37e-12 4.49e-12 4.62e-12 
05 00 05  07 02 06 0 3e-14 1.5e-13 6.6e-13 1.38e-12 2.16e-12 2.91e-12 3.61e-12 4.25e-12 4.84e-12 5.37e-12 6.31e-12 7.11e-12 7.88e-12 8.48e-12 9.1e-12 9.58e-12 1.01e-11 1.06e-11 1.1e-11 1.14e-11 
05 00 05  07 02 05 0 1e-14 5e-14 2.5e-13 5.4e-13 8.6e-13 1.18e-12 1.49e-12 1.77e-12 2.03e-12 2.27e-12 2.69e-12 3.05e-12 3.37e-12 3.65e-12 3.92e-12 4.16e-12 4.4e-12 4.61e-12 4.82e-12 5.03e-12 
05 00 05  08 02 07 0 0 2e-14 1.5e-13 4.1e-13 7.4e-13 1.1e-12 1.46e-12 1.82e-12 2.15e-12 2.47e-12 3.06e-12 3.59e-12 4.08e-12 4.53e-12 4.97e-12 5.37e-12 5.76e-12 6.14e-12 6.5e-12 6.86e-12 
05 00 05  08 02 06 0 0 1e-14 7e-14 1.9e-13 3.4e-13 5.1e-13 6.8e-13 8.4e-13 1e-12 1.16e-12 1.46e-12 1.74e-12 2.02e-12 2.29e-12 2.56e-12 2.83e-12 3.1e-12 3.36e-12 3.63e-12 3.89e-12 
05 00 05  09 02 08 0 0 0 5e-14 1.6e-13 3.5e-13 5.8e-13 8.3e-13 1.1e-12 1.36e-12 1.61e-12 2.1e-12 2.54e-12 2.95e-12 3.33e-12 3.68e-12 3.99e-12 4.29e-12 4.56e-12 4.83e-12 5.07e-12 
05 00 05  09 02 07 0 0 0 2e-14 9e-14 1.9e-13 3.3e-13 4.9e-13 6.7e-13 8.6e-13 1.06e-12 1.47e-12 1.88e-12 2.29e-12 2.69e-12 3.07e-12 3.44e-12 3.8e-12 4.15e-12 4.49e-12 4.82e-12 
05 00 05  10 02 09 0 0 0 1e-14 4e-14 1.1e-13 2e-13 3.1e-13 4.4e-13 5.7e-13 7.1e-13 9.9e-13 1.25e-12 1.51e-12 1.75e-12 1.98e-12 2.2e-12 2.4e-12 2.61e-12 2.79e-12 2.98e-12 
05 00 05  10 02 08 0 0 0 1e-14 4e-14 9e-14 1.8e-13 2.9e-13 4.2e-13 5.6e-13 7.2e-13 1.04e-12 1.38e-12 1.72e-12 2.05e-12 2.37e-12 2.69e-12 3e-12 3.29e-12 3.58e-12 3.87e-12 
05 00 05  11 02 10 0 0 0 0 1e-14 3e-14 6e-14 1e-13 1.5e-13 2e-13 2.6e-13 3.9e-13 5.3e-13 6.8e-13 8.2e-13 9.7e-13 1.13e-12 1.29e-12 1.47e-12 1.65e-12 1.83e-12 
05 00 05  11 02 09 0 0 0 0 1e-14 3e-14 6e-14 1.1e-13 1.8e-13 2.5e-13 3.3e-13 5.2e-13 7.2e-13 9.3e-13 1.15e-12 1.36e-12 1.58e-12 1.8e-12 2.02e-12 2.24e-12 2.48e-12 
05 00 05  04 04 01 0 0 0 0 1e-14 3e-14 6e-14 1e-13 1.4e-13 1.9e-13 2.4e-13 3.5e-13 4.7e-13 5.8e-13 7e-13 8.1e-13 9.1e-13 1.02e-12 1.11e-12 1.21e-12 1.3e-12 
05 00 05  04 04 00 0 0 0 0 2e-14 4e-14 7e-14 1.2e-13 1.6e-13 2.2e-13 2.7e-13 3.9e-13 5e-13 6.2e-13 7.3e-13 8.5e-13 9.5e-13 1.06e-12 1.16e-12 1.26e-12 1.35e-12 
05 00 05  05 04 02 0 0 0 0 1e-14 2e-14 4e-14 7e-14 1e-13 1.4e-13 1.8e-13 2.7e-13 3.6e-13 4.6e-13 5.7e-13 6.7e-13 7.7e-13 8.7e-13 9.7e-13 1.07e-12 1.17e-12 
05 00 05  05 04 01 0 0 0 0 1e-14 2e-14 4e-14 7e-14 1.1e-13 1.5e-13 1.9e-13 2.9e-13 4e-13 5.2e-13 6.4e-13 7.6e-13 8.8e-13 1.01e-12 1.13e-12 1.26e-12 1.39e-12 
05 00 05  06 04 03 0 0 0 0 0 1e-14 3e-14 4e-14 7e-14 1e-13 1.3e-13 2e-13 2.9e-13 3.8e-13 4.7e-13 5.7e-13 6.7e-13 7.7e-13 8.6e-13 9.6e-13 1.06e-12 
05 00 05  06 04 02 0 0 0 0 1e-14 3e-14 5e-14 9e-14 1.4e-13 1.9e-13 2.5e-13 3.8e-13 5.3e-13 6.9e-13 8.5e-13 1.02e-12 1.2e-12 1.38e-12 1.56e-12 1.75e-12 1.94e-12 
05 00 05  07 04 04 0 0 0 0 0 1e-14 2e-14 4e-14 7e-14 1e-13 1.4e-13 2.1e-13 3e-13 3.9e-13 4.8e-13 5.7e-13 6.7e-13 7.7e-13 8.7e-13 9.6e-13 1.07e-12 
05 00 05  07 04 03 0 0 0 0 1e-14 2e-14 4e-14 8e-14 1.3e-13 1.9e-13 2.6e-13 4.1e-13 5.9e-13 7.8e-13 9.7e-13 1.18e-12 1.38e-12 1.58e-12 1.79e-12 1.99e-12 2.19e-12 
06 00 06  00 00 00 1.3e-13 1.2e-13 1.2e-13 1.3e-13 1.7e-13 2.2e-13 2.9e-13 3.6e-13 4.3e-13 5e-13 5.7e-13 7.1e-13 8.3e-13 9.5e-13 1.06e-12 1.16e-12 1.26e-12 1.35e-12 1.44e-12 1.53e-12 1.62e-12 
06 00 06  01 00 01 1.9e-12 1.81e-12 1.75e-12 1.69e-12 1.71e-12 1.79e-12 1.91e-12 2.06e-12 2.24e-12 2.43e-12 2.62e-12 3.01e-12 3.39e-12 3.74e-12 4.07e-12 4.38e-12 4.65e-12 4.89e-12 5.11e-12 5.31e-12 5.48e-12 
06 00 06  02 00 02 2.55e-12 2.57e-12 2.62e-12 2.84e-12 3.16e-12 3.52e-12 3.9e-12 4.28e-12 4.65e-12 5.01e-12 5.36e-12 6.01e-12 6.62e-12 7.19e-12 7.72e-12 8.22e-12 8.68e-12 9.12e-12 9.53e-12 9.92e-12 1.03e-11 
06 00 06  03 00 03 8.11e-12 7.65e-12 7.41e-12 7.25e-12 7.32e-12 7.49e-12 7.72e-12 7.98e-12 8.25e-12 8.53e-12 8.8e-12 9.31e-12 9.79e-12 1.02e-11 1.06e-11 1.1e-11 1.13e-11 1.16e-11 1.18e-11 1.2e-11 1.22e-11 
06 00 06  04 00 04 1.61e-11 1.49e-11 1.45e-11 1.45e-11 1.53e-11 1.64e-11 1.75e-11 1.87e-11 1.99e-11 2.1e-11 2.2e-11 2.39e-11 2.56e-11 2.71e-11 2.84e-11 2.96e-11 3.07e-11 3.17e-11 3.26e-11 3.34e-11 3.42e-11 
06 00 06  05 00 05 4.98e-11 4.82e-11 4.68e-11 4.42e-11 4.23e-11 4.08e-11 3.97e-11 3.9e-11 3.84e-11 3.8e-11 3.77e-11 3.73e-11 3.72e-11 3.72e-11 3.73e-11 3.74e-11 3.76e-11 3.79e-11 3.81e-11 3.84e-11 3.86e-11 
06 00 06  06 00 06 0 0 0 0 0 0 0 0 0 0 0 0 0 0 0 0 0 0 0 0 0 
06 00 06  07 00 07 4.72e-12 1.02e-11 1.47e-11 2.06e-11 2.42e-11 2.66e-11 2.83e-11 2.96e-11 3.07e-11 3.17e-11 3.24e-11 3.37e-11 3.49e-11 3.59e-11 3.67e-11 3.75e-11 3.83e-11 3.9e-11 3.97e-11 4.03e-11 4.09e-11 
06 00 06  08 00 08 8e-14 4.4e-13 1.08e-12 2.8e-12 4.73e-12 6.69e-12 8.63e-12 1.05e-11 1.24e-11 1.42e-11 1.59e-11 1.9e-11 2.19e-11 2.44e-11 2.68e-11 2.9e-11 3.09e-11 3.28e-11 3.44e-11 3.6e-11 3.74e-11 
06 00 06  09 00 09 0 3e-14 1.2e-13 5.1e-13 1.11e-12 1.8e-12 2.54e-12 3.28e-12 4.01e-12 4.71e-12 5.38e-12 6.63e-12 7.76e-12 8.74e-12 9.72e-12 1.06e-11 1.13e-11 1.21e-11 1.27e-11 1.33e-11 1.38e-11 
06 00 06  10 00 10 0 0 1e-14 8e-14 2.5e-13 5.2e-13 8.5e-13 1.24e-12 1.66e-12 2.11e-12 2.57e-12 3.52e-12 4.47e-12 5.42e-12 6.34e-12 7.22e-12 8.07e-12 8.88e-12 9.65e-12 1.04e-11 1.11e-11 
06 00 06  11 00 11 0 0 0 1e-14 3e-14 9e-14 1.8e-13 3e-13 4.7e-13 6.6e-13 8.8e-13 1.37e-12 1.93e-12 2.52e-12 3.12e-12 3.74e-12 4.35e-12 4.98e-12 5.6e-12 6.21e-12 6.82e-12 
06 00 06  12 00 12 0 0 0 0 3e-14 8e-14 1.7e-13 2.9e-13 4.3e-13 5.9e-13 7.7e-13 1.16e-12 1.59e-12 2.05e-12 2.54e-12 3.04e-12 3.56e-12 4.09e-12 4.64e-12 5.2e-12 5.77e-12 
06 00 06  02 02 01 5.14e-12 5.18e-12 5.24e-12 5.35e-12 5.44e-12 5.54e-12 5.6e-12 5.69e-12 5.76e-12 5.82e-12 5.9e-12 6.01e-12 6.07e-12 6.16e-12 6.21e-12 6.24e-12 6.28e-12 6.33e-12 6.33e-12 6.39e-12 6.36e-12 
06 00 06  02 02 00 2.24e-12 2.14e-12 2.09e-12 2.07e-12 2.09e-12 2.13e-12 2.18e-12 2.23e-12 2.28e-12 2.33e-12 2.38e-12 2.47e-12 2.54e-12 2.62e-12 2.7e-12 2.77e-12 2.84e-12 2.91e-12 2.98e-12 3.04e-12 3.11e-12 
06 00 06  03 02 02 8.82e-12 8.59e-12 8.28e-12 7.77e-12 7.44e-12 7.18e-12 6.94e-12 6.8e-12 6.67e-12 6.57e-12 6.47e-12 6.36e-12 6.26e-12 6.18e-12 6.16e-12 6.14e-12 6.18e-12 6.17e-12 6.15e-12 6.2e-12 6.19e-12 
06 00 06  03 02 01 1.3e-11 1.27e-11 1.25e-11 1.22e-11 1.2e-11 1.17e-11 1.16e-11 1.14e-11 1.13e-11 1.12e-11 1.11e-11 1.1e-11 1.08e-11 1.07e-11 1.07e-11 1.07e-11 1.06e-11 1.06e-11 1.05e-11 1.05e-11 1.05e-11 
06 00 06  04 02 03 4.77e-12 6.37e-12 7.31e-12 8.35e-12 8.92e-12 9.25e-12 9.53e-12 9.72e-12 9.94e-12 1.01e-11 1.02e-11 1.04e-11 1.05e-11 1.07e-11 1.08e-11 1.09e-11 1.1e-11 1.1e-11 1.11e-11 1.11e-11 1.12e-11 
06 00 06  04 02 02 4.21e-12 5.43e-12 6.1e-12 6.79e-12 7.13e-12 7.33e-12 7.43e-12 7.52e-12 7.64e-12 7.67e-12 7.74e-12 7.86e-12 7.94e-12 8e-12 8.11e-12 8.22e-12 8.32e-12 8.41e-12 8.5e-12 8.59e-12 8.68e-12 
06 00 06  05 02 04 5.3e-13 1.22e-12 1.83e-12 2.71e-12 3.31e-12 3.74e-12 4.07e-12 4.34e-12 4.58e-12 4.78e-12 4.96e-12 5.29e-12 5.59e-12 5.85e-12 6.1e-12 6.32e-12 6.54e-12 6.75e-12 6.95e-12 7.14e-12 7.33e-12 
06 00 06  05 02 03 1.28e-12 3e-12 4.55e-12 6.83e-12 8.36e-12 9.43e-12 1.02e-11 1.09e-11 1.13e-11 1.18e-11 1.22e-11 1.27e-11 1.32e-11 1.36e-11 1.39e-11 1.42e-11 1.45e-11 1.47e-11 1.49e-11 1.51e-11 1.53e-11 
06 00 06  06 02 05 1.4e-13 6.2e-13 1.32e-12 2.72e-12 3.88e-12 4.75e-12 5.43e-12 5.92e-12 6.38e-12 6.69e-12 6.99e-12 7.43e-12 7.71e-12 7.97e-12 8.24e-12 8.38e-12 8.56e-12 8.71e-12 8.84e-12 8.96e-12 9.14e-12 
06 00 06  06 02 04 1.2e-13 5.4e-13 1.17e-12 2.56e-12 3.88e-12 5.03e-12 6.06e-12 6.99e-12 7.82e-12 8.59e-12 9.3e-12 1.06e-11 1.17e-11 1.27e-11 1.36e-11 1.45e-11 1.52e-11 1.59e-11 1.66e-11 1.72e-11 1.78e-11 
06 00 06  07 02 06 1e-14 1.2e-13 3.7e-13 1.18e-12 2.12e-12 3.06e-12 3.92e-12 4.73e-12 5.52e-12 6.2e-12 6.82e-12 8.01e-12 9.07e-12 1e-11 1.08e-11 1.17e-11 1.24e-11 1.31e-11 1.38e-11 1.44e-11 1.5e-11 
06 00 06  07 02 05 1e-14 7e-14 2.3e-13 7.2e-13 1.26e-12 1.75e-12 2.16e-12 2.5e-12 2.78e-12 3.02e-12 3.23e-12 3.55e-12 3.81e-12 4.01e-12 4.2e-12 4.37e-12 4.53e-12 4.69e-12 4.85e-12 5.01e-12 5.18e-12 
06 00 06  08 02 07 0 2e-14 1e-13 5e-13 1.13e-12 1.84e-12 2.54e-12 3.19e-12 3.81e-12 4.37e-12 4.88e-12 5.82e-12 6.62e-12 7.3e-12 7.97e-12 8.59e-12 9.15e-12 9.67e-12 1.02e-11 1.06e-11 1.11e-11 
06 00 06  08 02 06 0 1e-14 3e-14 1.9e-13 4.4e-13 7.5e-13 1.07e-12 1.38e-12 1.67e-12 1.95e-12 2.21e-12 2.67e-12 3.08e-12 3.44e-12 3.76e-12 4.06e-12 4.35e-12 4.61e-12 4.87e-12 5.11e-12 5.35e-12 
06 00 06  09 02 08 0 0 1e-14 1.2e-13 3.5e-13 6.7e-13 1.04e-12 1.42e-12 1.79e-12 2.15e-12 2.5e-12 3.16e-12 3.76e-12 4.31e-12 4.84e-12 5.33e-12 5.81e-12 6.28e-12 6.72e-12 7.16e-12 7.59e-12 
06 00 06  09 02 07 0 0 1e-14 5e-14 1.4e-13 2.7e-13 4.2e-13 5.8e-13 7.4e-13 9e-13 1.07e-12 1.38e-12 1.67e-12 1.96e-12 2.23e-12 2.5e-12 2.75e-12 2.99e-12 3.22e-12 3.46e-12 3.68e-12 
06 00 06  10 02 09 0 0 0 3e-14 1.2e-13 2.7e-13 4.8e-13 7.1e-13 9.5e-13 1.19e-12 1.44e-12 1.91e-12 2.34e-12 2.74e-12 3.11e-12 3.45e-12 3.77e-12 4.07e-12 4.35e-12 4.62e-12 4.88e-12 
06 00 06  10 02 08 0 0 0 1e-14 5e-14 1.2e-13 2.2e-13 3.5e-13 5e-13 6.5e-13 8.2e-13 1.18e-12 1.54e-12 1.91e-12 2.27e-12 2.62e-12 2.96e-12 3.3e-12 3.64e-12 3.97e-12 4.28e-12 
06 00 06  11 02 10 0 0 0 1e-14 3e-14 8e-14 1.7e-13 2.8e-13 4.1e-13 5.5e-13 7e-13 1.01e-12 1.32e-12 1.63e-12 1.92e-12 2.2e-12 2.48e-12 2.74e-12 3e-12 3.25e-12 3.48e-12 
06 00 06  11 02 09 0 0 0 0 2e-14 6e-14 1.2e-13 2e-13 2.9e-13 4e-13 5.3e-13 8e-13 1.1e-12 1.42e-12 1.74e-12 2.06e-12 2.4e-12 2.73e-12 3.05e-12 3.37e-12 3.69e-12 
06 00 06  04 04 01 0 0 0 1e-14 3e-14 6e-14 1.1e-13 1.7e-13 2.3e-13 3e-13 3.6e-13 5e-13 6.3e-13 7.6e-13 8.8e-13 9.9e-13 1.09e-12 1.19e-12 1.28e-12 1.37e-12 1.45e-12 
06 00 06  04 04 00 0 0 0 1e-14 3e-14 6e-14 1e-13 1.5e-13 2.1e-13 2.7e-13 3.4e-13 4.7e-13 6e-13 7.2e-13 8.5e-13 9.6e-13 1.07e-12 1.18e-12 1.29e-12 1.39e-12 1.48e-12 
06 00 06  05 04 02 0 0 0 0 1e-14 3e-14 6e-14 9e-14 1.2e-13 1.7e-13 2.1e-13 3e-13 4e-13 5e-13 6e-13 7e-13 8e-13 8.9e-13 9.9e-13 1.08e-12 1.17e-12 
06 00 06  05 04 01 0 0 0 0 1e-14 3e-14 5e-14 8e-14 1.1e-13 1.4e-13 1.9e-13 2.7e-13 3.6e-13 4.5e-13 5.4e-13 6.4e-13 7.3e-13 8.3e-13 9.2e-13 1.01e-12 1.1e-12 
06 00 06  06 04 03 0 0 0 0 1e-14 3e-14 6e-14 1e-13 1.5e-13 2e-13 2.5e-13 3.6e-13 4.8e-13 5.9e-13 7e-13 8.1e-13 9.2e-13 1.02e-12 1.12e-12 1.22e-12 1.32e-12 
06 00 06  06 04 02 0 0 0 0 1e-14 2e-14 4e-14 7e-14 1.1e-13 1.5e-13 1.9e-13 2.9e-13 4.1e-13 5.4e-13 6.7e-13 8.1e-13 9.6e-13 1.12e-12 1.27e-12 1.43e-12 1.6e-12 
06 00 06  07 04 04 0 0 0 0 1e-14 2e-14 5e-14 8e-14 1.2e-13 1.7e-13 2.2e-13 3.4e-13 4.7e-13 6e-13 7.4e-13 8.7e-13 1.01e-12 1.14e-12 1.27e-12 1.4e-12 1.53e-12 
06 00 06  07 04 03 0 0 0 0 1e-14 2e-14 5e-14 9e-14 1.3e-13 1.9e-13 2.4e-13 3.7e-13 5e-13 6.4e-13 7.7e-13 9.1e-13 1.04e-12 1.17e-12 1.29e-12 1.41e-12 1.53e-12 
07 00 07  00 00 00 2.8e-13 2.7e-13 2.6e-13 2.4e-13 2.4e-13 2.4e-13 2.6e-13 2.7e-13 3e-13 3.3e-13 3.7e-13 4.4e-13 5.3e-13 6.1e-13 6.9e-13 7.7e-13 8.4e-13 9e-13 9.6e-13 1.02e-12 1.06e-12 
07 00 07  01 00 01 4.5e-13 4.3e-13 4.4e-13 4.8e-13 5.6e-13 6.6e-13 7.7e-13 8.9e-13 1.02e-12 1.15e-12 1.27e-12 1.52e-12 1.77e-12 2e-12 2.24e-12 2.46e-12 2.69e-12 2.91e-12 3.13e-12 3.36e-12 3.58e-12 
07 00 07  02 00 02 2.49e-12 2.38e-12 2.29e-12 2.18e-12 2.18e-12 2.26e-12 2.38e-12 2.54e-12 2.72e-12 2.9e-12 3.1e-12 3.48e-12 3.85e-12 4.19e-12 4.51e-12 4.81e-12 5.07e-12 5.31e-12 5.53e-12 5.72e-12 5.89e-12 
07 00 07  03 00 03 1.62e-12 1.83e-12 2.05e-12 2.54e-12 3.05e-12 3.56e-12 4.05e-12 4.52e-12 4.95e-12 5.37e-12 5.76e-12 6.48e-12 7.14e-12 7.75e-12 8.3e-12 8.82e-12 9.31e-12 9.77e-12 1.02e-11 1.06e-11 1.1e-11 
07 00 07  04 00 04 6.44e-12 6.41e-12 6.41e-12 6.55e-12 6.8e-12 7.12e-12 7.46e-12 7.8e-12 8.14e-12 8.46e-12 8.78e-12 9.36e-12 9.9e-12 1.04e-11 1.08e-11 1.13e-11 1.17e-11 1.2e-11 1.24e-11 1.27e-11 1.3e-11 
07 00 07  05 00 05 1.11e-11 1.14e-11 1.17e-11 1.27e-11 1.39e-11 1.52e-11 1.65e-11 1.78e-11 1.9e-11 2.01e-11 2.12e-11 2.33e-11 2.5e-11 2.66e-11 2.8e-11 2.93e-11 3.04e-11 3.15e-11 3.24e-11 3.32e-11 3.4e-11 
07 00 07  06 00 06 4.72e-11 4.51e-11 4.32e-11 4.04e-11 3.86e-11 3.76e-11 3.69e-11 3.64e-11 3.61e-11 3.6e-11 3.59e-11 3.58e-11 3.6e-11 3.62e-11 3.64e-11 3.67e-11 3.71e-11 3.74e-11 3.78e-11 3.81e-11 3.85e-11 
07 00 07  07 00 07 0 0 0 0 0 0 0 0 0 0 0 0 0 0 0 0 0 0 0 0 0 
07 00 07  08 00 08 2.53e-12 6.26e-12 9.8e-12 1.54e-11 1.92e-11 2.2e-11 2.41e-11 2.59e-11 2.73e-11 2.84e-11 2.94e-11 3.12e-11 3.25e-11 3.37e-11 3.46e-11 3.56e-11 3.63e-11 3.71e-11 3.78e-11 3.84e-11 3.89e-11 
07 00 07  09 00 09 3e-14 2.5e-13 6.8e-13 1.98e-12 3.53e-12 5.17e-12 6.87e-12 8.57e-12 1.02e-11 1.18e-11 1.34e-11 1.62e-11 1.89e-11 2.13e-11 2.35e-11 2.56e-11 2.75e-11 2.92e-11 3.07e-11 3.22e-11 3.36e-11 
07 00 07  10 00 10 0 1e-14 7e-14 3.4e-13 8.1e-13 1.4e-12 2.05e-12 2.74e-12 3.42e-12 4.09e-12 4.75e-12 6e-12 7.14e-12 8.23e-12 9.2e-12 1.01e-11 1.09e-11 1.17e-11 1.24e-11 1.31e-11 1.37e-11 
07 00 07  11 00 11 0 0 0 4e-14 1.5e-13 3.3e-13 5.7e-13 8.6e-13 1.18e-12 1.53e-12 1.91e-12 2.71e-12 3.56e-12 4.44e-12 5.33e-12 6.22e-12 7.09e-12 7.95e-12 8.8e-12 9.64e-12 1.04e-11 
07 00 07  12 00 12 0 0 0 0 2e-14 5e-14 1.2e-13 2.2e-13 3.5e-13 5.2e-13 7.2e-13 1.2e-12 1.76e-12 2.37e-12 3.03e-12 3.72e-12 4.43e-12 5.17e-12 5.92e-12 6.68e-12 7.46e-12 
07 00 07  02 02 01 1.86e-12 1.73e-12 1.62e-12 1.5e-12 1.46e-12 1.45e-12 1.47e-12 1.5e-12 1.54e-12 1.57e-12 1.62e-12 1.69e-12 1.76e-12 1.83e-12 1.89e-12 1.94e-12 2e-12 2.05e-12 2.09e-12 2.14e-12 2.18e-12 
07 00 07  02 02 00 3.71e-12 3.5e-12 3.34e-12 3.19e-12 3.14e-12 3.17e-12 3.23e-12 3.29e-12 3.37e-12 3.45e-12 3.52e-12 3.66e-12 3.79e-12 3.89e-12 3.98e-12 4.05e-12 4.12e-12 4.18e-12 4.2e-12 4.23e-12 4.27e-12 
07 00 07  03 02 02 8.46e-12 8.41e-12 8.39e-12 8.33e-12 8.26e-12 8.19e-12 8.12e-12 8.07e-12 7.99e-12 7.92e-12 7.92e-12 7.83e-12 7.79e-12 7.76e-12 7.76e-12 7.74e-12 7.69e-12 7.71e-12 7.69e-12 7.68e-12 7.68e-12 
07 00 07  03 02 01 4.03e-12 3.87e-12 3.74e-12 3.61e-12 3.56e-12 3.56e-12 3.57e-12 3.58e-12 3.59e-12 3.61e-12 3.63e-12 3.65e-12 3.68e-12 3.7e-12 3.73e-12 3.76e-12 3.79e-12 3.82e-12 3.86e-12 3.89e-12 3.93e-12 
07 00 07  04 02 03 9.42e-12 9.07e-12 8.8e-12 8.38e-12 8.09e-12 7.88e-12 7.72e-12 7.59e-12 7.45e-12 7.44e-12 7.31e-12 7.25e-12 7.19e-12 7.15e-12 7.14e-12 7.14e-12 7.16e-12 7.11e-12 7.14e-12 7.17e-12 7.21e-12 
07 00 07  04 02 02 1.43e-11 1.39e-11 1.36e-11 1.32e-11 1.29e-11 1.26e-11 1.24e-11 1.22e-11 1.2e-11 1.19e-11 1.17e-11 1.15e-11 1.13e-11 1.11e-11 1.11e-11 1.1e-11 1.09e-11 1.08e-11 1.08e-11 1.07e-11 1.07e-11 
07 00 07  05 02 04 1.41e-11 1.42e-11 1.39e-11 1.32e-11 1.26e-11 1.22e-11 1.19e-11 1.17e-11 1.16e-11 1.15e-11 1.14e-11 1.13e-11 1.13e-11 1.13e-11 1.13e-11 1.13e-11 1.13e-11 1.14e-11 1.14e-11 1.14e-11 1.15e-11 
07 00 07  05 02 03 1.34e-11 1.32e-11 1.26e-11 1.16e-11 1.08e-11 1.04e-11 9.98e-12 9.74e-12 9.55e-12 9.36e-12 9.23e-12 9.04e-12 8.91e-12 8.78e-12 8.72e-12 8.65e-12 8.66e-12 8.59e-12 8.6e-12 8.6e-12 8.68e-12 
07 00 07  06 02 05 5.9e-13 1.25e-12 1.81e-12 2.62e-12 3.17e-12 3.58e-12 3.9e-12 4.17e-12 4.41e-12 4.62e-12 4.82e-12 5.16e-12 5.48e-12 5.76e-12 6.02e-12 6.27e-12 6.49e-12 6.7e-12 6.9e-12 7.1e-12 7.27e-12 
07 00 07  06 02 04 1.92e-12 4.06e-12 5.83e-12 8.39e-12 1e-11 1.11e-11 1.19e-11 1.25e-11 1.3e-11 1.33e-11 1.36e-11 1.41e-11 1.45e-11 1.47e-11 1.49e-11 1.5e-11 1.52e-11 1.53e-11 1.54e-11 1.55e-11 1.57e-11 
07 00 07  07 02 06 1.3e-13 6e-13 1.25e-12 2.58e-12 3.66e-12 4.44e-12 5.06e-12 5.56e-12 5.94e-12 6.22e-12 6.49e-12 6.89e-12 7.21e-12 7.44e-12 7.67e-12 7.87e-12 8.06e-12 8.22e-12 8.43e-12 8.54e-12 8.72e-12 
07 00 07  07 02 05 1.2e-13 5.6e-13 1.21e-12 2.68e-12 4.06e-12 5.26e-12 6.34e-12 7.3e-12 8.16e-12 8.95e-12 9.68e-12 1.09e-11 1.21e-11 1.31e-11 1.4e-11 1.48e-11 1.56e-11 1.63e-11 1.69e-11 1.75e-11 1.81e-11 
07 00 07  08 02 07 1e-14 7e-14 2.5e-13 8.8e-13 1.66e-12 2.47e-12 3.24e-12 3.99e-12 4.7e-12 5.32e-12 5.94e-12 7.09e-12 8.09e-12 9e-12 9.86e-12 1.07e-11 1.14e-11 1.22e-11 1.28e-11 1.35e-11 1.41e-11 
07 00 07  08 02 06 1e-14 6e-14 2.1e-13 7.2e-13 1.33e-12 1.89e-12 2.38e-12 2.8e-12 3.16e-12 3.46e-12 3.72e-12 4.15e-12 4.5e-12 4.79e-12 5.05e-12 5.28e-12 5.5e-12 5.71e-12 5.92e-12 6.12e-12 6.33e-12 
07 00 07  09 02 08 0 1e-14 7e-14 4.1e-13 9.7e-13 1.63e-12 2.27e-12 2.9e-12 3.48e-12 4.03e-12 4.54e-12 5.42e-12 6.21e-12 6.9e-12 7.57e-12 8.11e-12 8.66e-12 9.18e-12 9.67e-12 1e-11 1.05e-11 
07 00 07  09 02 07 0 0 2e-14 1.5e-13 3.8e-13 6.7e-13 9.9e-13 1.31e-12 1.61e-12 1.91e-12 2.18e-12 2.69e-12 3.14e-12 3.53e-12 3.89e-12 4.21e-12 4.5e-12 4.75e-12 4.99e-12 5.2e-12 5.4e-12 
07 00 07  10 02 09 0 0 1e-14 8e-14 2.7e-13 5.5e-13 8.8e-13 1.23e-12 1.59e-12 1.95e-12 2.29e-12 2.95e-12 3.56e-12 4.12e-12 4.64e-12 5.13e-12 5.59e-12 6.03e-12 6.44e-12 6.84e-12 7.23e-12 
07 00 07  10 02 08 0 0 0 3e-14 1.1e-13 2.3e-13 3.8e-13 5.4e-13 7.1e-13 8.7e-13 1.03e-12 1.34e-12 1.63e-12 1.9e-12 2.16e-12 2.41e-12 2.65e-12 2.89e-12 3.13e-12 3.37e-12 3.6e-12 
07 00 07  11 02 10 0 0 0 2e-14 9e-14 2.2e-13 4e-13 6.2e-13 8.5e-13 1.1e-12 1.35e-12 1.85e-12 2.34e-12 2.79e-12 3.23e-12 3.64e-12 4.03e-12 4.41e-12 4.77e-12 5.11e-12 5.45e-12 
07 00 07  11 02 09 0 0 0 1e-14 3e-14 8e-14 1.6e-13 2.5e-13 3.7e-13 5e-13 6.4e-13 9.5e-13 1.28e-12 1.61e-12 1.95e-12 2.28e-12 2.61e-12 2.93e-12 3.25e-12 3.56e-12 3.86e-12 
07 00 07  04 04 01 0 0 0 2e-14 5e-14 1e-13 1.6e-13 2.2e-13 2.9e-13 3.6e-13 4.3e-13 5.7e-13 7e-13 8.2e-13 9.3e-13 1.03e-12 1.13e-12 1.22e-12 1.3e-12 1.38e-12 1.45e-12 
07 00 07  04 04 00 0 0 0 1e-14 4e-14 9e-14 1.4e-13 2.1e-13 2.8e-13 3.5e-13 4.2e-13 5.5e-13 6.9e-13 8.1e-13 9.2e-13 1.03e-12 1.13e-12 1.22e-12 1.31e-12 1.39e-12 1.46e-12 
07 00 07  05 04 02 0 0 0 1e-14 3e-14 6e-14 1e-13 1.5e-13 2.1e-13 2.6e-13 3.2e-13 4.4e-13 5.5e-13 6.7e-13 7.8e-13 8.8e-13 9.8e-13 1.08e-12 1.17e-12 1.26e-12 1.35e-12 
07 00 07  05 04 01 0 0 0 1e-14 2e-14 5e-14 9e-14 1.3e-13 1.7e-13 2.2e-13 2.7e-13 3.7e-13 4.8e-13 5.8e-13 6.7e-13 7.7e-13 8.6e-13 9.5e-13 1.04e-12 1.12e-12 1.2e-12 
07 00 07  06 04 03 0 0 0 1e-14 2e-14 5e-14 9e-14 1.4e-13 2e-13 2.6e-13 3.2e-13 4.6e-13 5.9e-13 7.2e-13 8.4e-13 9.7e-13 1.09e-12 1.2e-12 1.31e-12 1.42e-12 1.53e-12 
07 00 07  06 04 02 0 0 0 0 1e-14 3e-14 6e-14 1e-13 1.5e-13 2e-13 2.5e-13 3.7e-13 4.9e-13 6.2e-13 7.5e-13 8.8e-13 1.02e-12 1.15e-12 1.29e-12 1.42e-12 1.56e-12 
07 00 07  07 04 04 0 0 0 0 2e-14 5e-14 9e-14 1.5e-13 2.2e-13 3e-13 3.8e-13 5.7e-13 7.6e-13 9.6e-13 1.17e-12 1.37e-12 1.58e-12 1.78e-12 1.99e-12 2.2e-12 2.4e-12 
07 00 07  07 04 03 0 0 0 0 1e-14 2e-14 4e-14 7e-14 1.1e-13 1.5e-13 1.9e-13 2.8e-13 3.8e-13 4.8e-13 5.8e-13 6.8e-13 7.8e-13 8.8e-13 9.7e-13 1.06e-12 1.15e-12 
08 00 08  00 00 00 2.4e-13 2.5e-13 2.5e-13 2.6e-13 2.7e-13 2.7e-13 2.9e-13 3e-13 3.1e-13 3.2e-13 3.3e-13 3.5e-13 3.8e-13 4e-13 4.2e-13 4.5e-13 4.7e-13 5e-13 5.2e-13 5.5e-13 5.8e-13 
08 00 08  01 00 01 4.6e-13 4.7e-13 4.8e-13 5e-13 5.2e-13 5.5e-13 5.8e-13 6.3e-13 6.7e-13 7.3e-13 7.9e-13 9.2e-13 1.06e-12 1.21e-12 1.36e-12 1.51e-12 1.66e-12 1.79e-12 1.93e-12 2.05e-12 2.17e-12 
08 00 08  02 00 02 7.6e-13 8.1e-13 8.7e-13 1.02e-12 1.18e-12 1.35e-12 1.52e-12 1.68e-12 1.84e-12 1.99e-12 2.13e-12 2.38e-12 2.61e-12 2.83e-12 3.03e-12 3.23e-12 3.42e-12 3.61e-12 3.8e-12 4e-12 4.19e-12 
08 00 08  03 00 03 1.3e-12 1.31e-12 1.35e-12 1.47e-12 1.64e-12 1.85e-12 2.07e-12 2.32e-12 2.57e-12 2.82e-12 3.07e-12 3.57e-12 4.03e-12 4.47e-12 4.88e-12 5.27e-12 5.62e-12 5.94e-12 6.24e-12 6.52e-12 6.78e-12 
08 00 08  04 00 04 1.82e-12 2e-12 2.22e-12 2.72e-12 3.23e-12 3.73e-12 4.22e-12 4.68e-12 5.12e-12 5.54e-12 5.94e-12 6.69e-12 7.38e-12 8.02e-12 8.61e-12 9.16e-12 9.68e-12 1.02e-11 1.06e-11 1.1e-11 1.14e-11 
08 00 08  05 00 05 5.4e-12 5.37e-12 5.48e-12 5.84e-12 6.26e-12 6.7e-12 7.13e-12 7.54e-12 7.93e-12 8.29e-12 8.63e-12 9.26e-12 9.81e-12 1.03e-11 1.07e-11 1.12e-11 1.15e-11 1.19e-11 1.22e-11 1.25e-11 1.28e-11 
08 00 08  06 00 06 1.1e-11 1.11e-11 1.14e-11 1.23e-11 1.34e-11 1.46e-11 1.58e-11 1.7e-11 1.82e-11 1.94e-11 2.05e-11 2.25e-11 2.43e-11 2.59e-11 2.74e-11 2.88e-11 3e-11 3.12e-11 3.22e-11 3.32e-11 3.41e-11 
08 00 08  07 00 07 3.65e-11 3.56e-11 3.5e-11 3.44e-11 3.41e-11 3.4e-11 3.39e-11 3.4e-11 3.41e-11 3.42e-11 3.43e-11 3.47e-11 3.5e-11 3.54e-11 3.57e-11 3.61e-11 3.64e-11 3.68e-11 3.71e-11 3.74e-11 3.77e-11 
08 00 08  08 00 08 0 0 0 0 0 0 0 0 0 0 0 0 0 0 0 0 0 0 0 0 0 
08 00 08  09 00 09 1.84e-12 5.03e-12 8.28e-12 1.36e-11 1.75e-11 2.04e-11 2.27e-11 2.45e-11 2.61e-11 2.74e-11 2.86e-11 3.05e-11 3.21e-11 3.36e-11 3.48e-11 3.6e-11 3.7e-11 3.8e-11 3.9e-11 3.99e-11 4.08e-11 
08 00 08  10 00 10 1e-14 1.3e-13 4e-13 1.32e-12 2.54e-12 3.9e-12 5.35e-12 6.84e-12 8.3e-12 9.75e-12 1.11e-11 1.38e-11 1.63e-11 1.86e-11 2.08e-11 2.27e-11 2.46e-11 2.62e-11 2.78e-11 2.93e-11 3.07e-11 
08 00 08  11 00 11 0 1e-14 4e-14 2.2e-13 5.8e-13 1.07e-12 1.63e-12 2.22e-12 2.84e-12 3.44e-12 4.04e-12 5.18e-12 6.25e-12 7.24e-12 8.16e-12 8.97e-12 9.75e-12 1.05e-11 1.12e-11 1.18e-11 1.24e-11 
08 00 08  12 00 12 0 0 0 2e-14 9e-14 2e-13 3.6e-13 5.5e-13 7.7e-13 1.02e-12 1.27e-12 1.85e-12 2.47e-12 3.14e-12 3.85e-12 4.57e-12 5.31e-12 6.06e-12 6.82e-12 7.58e-12 8.34e-12 
08 00 08  02 02 01 1.52e-12 1.53e-12 1.55e-12 1.6e-12 1.67e-12 1.73e-12 1.8e-12 1.88e-12 1.95e-12 2.02e-12 2.09e-12 2.22e-12 2.34e-12 2.45e-12 2.53e-12 2.61e-12 2.67e-12 2.72e-12 2.77e-12 2.8e-12 2.83e-12 
08 00 08  02 02 00 9.5e-13 9.6e-13 9.7e-13 9.8e-13 1e-12 1.02e-12 1.04e-12 1.08e-12 1.11e-12 1.15e-12 1.18e-12 1.26e-12 1.33e-12 1.4e-12 1.46e-12 1.52e-12 1.58e-12 1.64e-12 1.69e-12 1.75e-12 1.81e-12 
08 00 08  03 02 02 9.6e-13 1.07e-12 1.17e-12 1.37e-12 1.55e-12 1.71e-12 1.83e-12 1.94e-12 2.04e-12 2.12e-12 2.19e-12 2.31e-12 2.42e-12 2.52e-12 2.6e-12 2.69e-12 2.78e-12 2.86e-12 2.94e-12 3.02e-12 3.09e-12 
08 00 08  03 02 01 3.36e-12 3.36e-12 3.4e-12 3.5e-12 3.59e-12 3.7e-12 3.79e-12 3.88e-12 3.96e-12 4.04e-12 4.11e-12 4.23e-12 4.33e-12 4.42e-12 4.49e-12 4.55e-12 4.6e-12 4.65e-12 4.68e-12 4.72e-12 4.74e-12 
08 00 08  04 02 03 1.03e-11 1.02e-11 1e-11 9.83e-12 9.67e-12 9.51e-12 9.36e-12 9.22e-12 9.1e-12 9.04e-12 8.94e-12 8.77e-12 8.68e-12 8.63e-12 8.57e-12 8.56e-12 8.53e-12 8.58e-12 8.58e-12 8.54e-12 8.57e-12 
08 00 08  04 02 02 4.41e-12 4.34e-12 4.31e-12 4.3e-12 4.31e-12 4.34e-12 4.36e-12 4.38e-12 4.4e-12 4.42e-12 4.43e-12 4.46e-12 4.49e-12 4.52e-12 4.56e-12 4.61e-12 4.64e-12 4.69e-12 4.74e-12 4.78e-12 4.82e-12 
08 00 08  05 02 04 1.11e-11 1.05e-11 1.01e-11 9.5e-12 9.13e-12 8.86e-12 8.66e-12 8.49e-12 8.37e-12 8.26e-12 8.18e-12 8.05e-12 7.96e-12 7.93e-12 7.94e-12 7.97e-12 8.02e-12 8.09e-12 8.09e-12 8.17e-12 8.19e-12 
08 00 08  05 02 03 1.53e-11 1.48e-11 1.44e-11 1.4e-11 1.36e-11 1.32e-11 1.3e-11 1.28e-11 1.26e-11 1.25e-11 1.23e-11 1.2e-11 1.18e-11 1.16e-11 1.15e-11 1.14e-11 1.12e-11 1.11e-11 1.1e-11 1.1e-11 1.09e-11 
08 00 08  06 02 05 1.69e-11 1.63e-11 1.57e-11 1.46e-11 1.38e-11 1.33e-11 1.29e-11 1.25e-11 1.23e-11 1.22e-11 1.2e-11 1.19e-11 1.17e-11 1.18e-11 1.17e-11 1.18e-11 1.18e-11 1.18e-11 1.19e-11 1.19e-11 1.2e-11 
08 00 08  06 02 04 1.24e-11 1.21e-11 1.18e-11 1.11e-11 1.06e-11 1.04e-11 1.02e-11 9.98e-12 9.89e-12 9.73e-12 9.68e-12 9.51e-12 9.45e-12 9.41e-12 9.37e-12 9.34e-12 9.4e-12 9.46e-12 9.44e-12 9.51e-12 9.57e-12 
08 00 08  07 02 06 7e-13 1.34e-12 1.87e-12 2.62e-12 3.15e-12 3.55e-12 3.88e-12 4.16e-12 4.41e-12 4.64e-12 4.84e-12 5.21e-12 5.54e-12 5.85e-12 6.13e-12 6.4e-12 6.65e-12 6.89e-12 7.13e-12 7.36e-12 7.59e-12 
08 00 08  07 02 05 3.05e-12 5.73e-12 7.79e-12 1.05e-11 1.21e-11 1.31e-11 1.39e-11 1.44e-11 1.47e-11 1.5e-11 1.52e-11 1.56e-11 1.59e-11 1.6e-11 1.62e-11 1.63e-11 1.63e-11 1.65e-11 1.66e-11 1.66e-11 1.67e-11 
08 00 08  08 02 07 1e-13 5e-13 1.07e-12 2.29e-12 3.26e-12 4.01e-12 4.61e-12 5.06e-12 5.42e-12 5.72e-12 5.97e-12 6.39e-12 6.73e-12 7.01e-12 7.26e-12 7.48e-12 7.69e-12 7.88e-12 8.06e-12 8.22e-12 8.38e-12 
08 00 08  08 02 06 1.1e-13 5.3e-13 1.19e-12 2.66e-12 4.06e-12 5.3e-12 6.43e-12 7.4e-12 8.32e-12 9.12e-12 9.86e-12 1.12e-11 1.24e-11 1.34e-11 1.44e-11 1.53e-11 1.6e-11 1.67e-11 1.74e-11 1.8e-11 1.85e-11 
08 00 08  09 02 08 0 5e-14 2e-13 7.3e-13 1.42e-12 2.13e-12 2.82e-12 3.47e-12 4.08e-12 4.64e-12 5.15e-12 6.1e-12 6.89e-12 7.66e-12 8.31e-12 8.9e-12 9.46e-12 1.01e-11 1.06e-11 1.1e-11 1.14e-11 
08 00 08  09 02 07 0 6e-14 2.2e-13 7.8e-13 1.46e-12 2.11e-12 2.69e-12 3.19e-12 3.61e-12 3.97e-12 4.28e-12 4.79e-12 5.19e-12 5.51e-12 5.79e-12 6.03e-12 6.24e-12 6.44e-12 6.63e-12 6.8e-12 6.96e-12 
08 00 08  10 02 09 0 1e-14 5e-14 3.2e-13 8e-13 1.38e-12 1.97e-12 2.54e-12 3.08e-12 3.57e-12 4.01e-12 4.8e-12 5.49e-12 6.08e-12 6.64e-12 7.14e-12 7.6e-12 8.01e-12 8.38e-12 8.73e-12 9.05e-12 
08 00 08  10 02 08 0 0 2e-14 1.2e-13 3.3e-13 6e-13 9e-13 1.21e-12 1.51e-12 1.8e-12 2.07e-12 2.57e-12 3.01e-12 3.4e-12 3.77e-12 4.1e-12 4.4e-12 4.69e-12 4.95e-12 5.2e-12 5.42e-12 
08 00 08  11 02 10 0 0 0 6e-14 2.1e-13 4.6e-13 7.6e-13 1.1e-12 1.46e-12 1.82e-12 2.18e-12 2.88e-12 3.56e-12 4.19e-12 4.8e-12 5.38e-12 5.93e-12 6.46e-12 6.97e-12 7.46e-12 7.94e-12 
08 00 08  11 02 09 0 0 0 3e-14 1e-13 2.1e-13 3.7e-13 5.4e-13 7.4e-13 9.4e-13 1.14e-12 1.54e-12 1.94e-12 2.32e-12 2.68e-12 3.03e-12 3.36e-12 3.69e-12 3.99e-12 4.29e-12 4.59e-12 
08 00 08  04 04 01 0 0 0 3e-14 6e-14 1.1e-13 1.7e-13 2.4e-13 3e-13 3.6e-13 4.2e-13 5.4e-13 6.5e-13 7.5e-13 8.4e-13 9.3e-13 1.01e-12 1.08e-12 1.15e-12 1.21e-12 1.27e-12 
08 00 08  04 04 00 0 0 1e-14 3e-14 8e-14 1.4e-13 2.1e-13 2.7e-13 3.4e-13 4.1e-13 4.7e-13 6e-13 7.1e-13 8.1e-13 9e-13 9.9e-13 1.07e-12 1.14e-12 1.21e-12 1.27e-12 1.32e-12 
08 00 08  05 04 02 0 0 0 2e-14 6e-14 1.2e-13 1.9e-13 2.6e-13 3.4e-13 4.1e-13 4.9e-13 6.3e-13 7.7e-13 9e-13 1.01e-12 1.12e-12 1.22e-12 1.31e-12 1.4e-12 1.48e-12 1.55e-12 
08 00 08  05 04 01 0 0 0 2e-14 7e-14 1.3e-13 2e-13 2.7e-13 3.5e-13 4.3e-13 5e-13 6.5e-13 7.8e-13 9.1e-13 1.03e-12 1.14e-12 1.23e-12 1.33e-12 1.42e-12 1.5e-12 1.58e-12 
08 00 08  06 04 03 0 0 0 1e-14 3e-14 7e-14 1.2e-13 1.8e-13 2.5e-13 3.2e-13 3.9e-13 5.4e-13 6.9e-13 8.4e-13 9.9e-13 1.13e-12 1.26e-12 1.38e-12 1.5e-12 1.62e-12 1.72e-12 
08 00 08  06 04 02 0 0 0 1e-14 3e-14 8e-14 1.3e-13 1.9e-13 2.6e-13 3.3e-13 4.1e-13 5.6e-13 7e-13 8.5e-13 9.8e-13 1.12e-12 1.24e-12 1.37e-12 1.49e-12 1.6e-12 1.72e-12 
08 00 08  07 04 04 0 0 0 1e-14 3e-14 6e-14 1.1e-13 1.7e-13 2.4e-13 3.2e-13 4e-13 5.8e-13 7.6e-13 9.5e-13 1.14e-12 1.33e-12 1.52e-12 1.7e-12 1.88e-12 2.06e-12 2.24e-12 
08 00 08  07 04 03 0 0 0 0 2e-14 5e-14 9e-14 1.3e-13 1.9e-13 2.5e-13 3.1e-13 4.5e-13 5.9e-13 7.3e-13 8.7e-13 1e-12 1.13e-12 1.26e-12 1.37e-12 1.48e-12 1.59e-12 
09 00 09  00 00 00 1.4e-13 1.5e-13 1.5e-13 1.6e-13 1.7e-13 1.7e-13 1.8e-13 1.9e-13 1.9e-13 2e-13 2.1e-13 2.4e-13 2.7e-13 3e-13 3.5e-13 3.9e-13 4.4e-13 4.9e-13 5.4e-13 5.9e-13 6.4e-13 
09 00 09  01 00 01 7.8e-13 7.9e-13 8.1e-13 8.7e-13 9.2e-13 9.8e-13 1.02e-12 1.07e-12 1.11e-12 1.15e-12 1.19e-12 1.26e-12 1.32e-12 1.37e-12 1.42e-12 1.47e-12 1.51e-12 1.55e-12 1.59e-12 1.63e-12 1.66e-12 
09 00 09  02 00 02 4.1e-13 4.3e-13 4.5e-13 5e-13 5.5e-13 6.1e-13 6.7e-13 7.4e-13 8.1e-13 8.9e-13 9.8e-13 1.16e-12 1.36e-12 1.57e-12 1.79e-12 2.01e-12 2.24e-12 2.46e-12 2.68e-12 2.9e-12 3.12e-12 
09 00 09  03 00 03 1.28e-12 1.31e-12 1.37e-12 1.53e-12 1.72e-12 1.91e-12 2.11e-12 2.29e-12 2.48e-12 2.65e-12 2.81e-12 3.12e-12 3.4e-12 3.66e-12 3.9e-12 4.12e-12 4.32e-12 4.51e-12 4.7e-12 4.87e-12 5.03e-12 
09 00 09  04 00 04 9.5e-13 9.6e-13 1.01e-12 1.15e-12 1.34e-12 1.55e-12 1.78e-12 2.02e-12 2.26e-12 2.5e-12 2.73e-12 3.19e-12 3.62e-12 4.02e-12 4.41e-12 4.77e-12 5.11e-12 5.44e-12 5.75e-12 6.05e-12 6.34e-12 
09 00 09  05 00 05 1.8e-12 1.99e-12 2.21e-12 2.7e-12 3.19e-12 3.67e-12 4.13e-12 4.57e-12 5e-12 5.41e-12 5.81e-12 6.57e-12 7.29e-12 7.96e-12 8.58e-12 9.17e-12 9.71e-12 1.02e-11 1.07e-11 1.11e-11 1.15e-11 
09 00 09  06 00 06 5.35e-12 5.31e-12 5.4e-12 5.74e-12 6.16e-12 6.6e-12 7.03e-12 7.43e-12 7.82e-12 8.18e-12 8.52e-12 9.13e-12 9.67e-12 1.01e-11 1.06e-11 1.1e-11 1.13e-11 1.17e-11 1.2e-11 1.23e-11 1.25e-11 
09 00 09  07 00 07 1.02e-11 1.02e-11 1.05e-11 1.13e-11 1.23e-11 1.34e-11 1.46e-11 1.58e-11 1.69e-11 1.8e-11 1.91e-11 2.1e-11 2.28e-11 2.44e-11 2.58e-11 2.72e-11 2.84e-11 2.95e-11 3.05e-11 3.14e-11 3.23e-11 
09 00 09  08 00 08 3.83e-11 3.66e-11 3.57e-11 3.48e-11 3.44e-11 3.43e-11 3.43e-11 3.44e-11 3.46e-11 3.48e-11 3.5e-11 3.55e-11 3.6e-11 3.66e-11 3.71e-11 3.77e-11 3.82e-11 3.88e-11 3.94e-11 3.99e-11 4.05e-11 
09 00 09  09 00 09 0 0 0 0 0 0 0 0 0 0 0 0 0 0 0 0 0 0 0 0 0 
09 00 09  10 00 10 1.29e-12 3.99e-12 6.99e-12 1.22e-11 1.62e-11 1.93e-11 2.17e-11 2.36e-11 2.53e-11 2.66e-11 2.78e-11 2.97e-11 3.13e-11 3.27e-11 3.39e-11 3.49e-11 3.58e-11 3.67e-11 3.74e-11 3.82e-11 3.89e-11 
09 00 09  11 00 11 1e-14 6e-14 2.1e-13 8.3e-13 1.74e-12 2.85e-12 4.03e-12 5.26e-12 6.53e-12 7.77e-12 9.07e-12 1.14e-11 1.38e-11 1.59e-11 1.8e-11 1.98e-11 2.16e-11 2.32e-11 2.47e-11 2.62e-11 2.75e-11 
09 00 09  12 00 12 0 0 2e-14 1.5e-13 4.5e-13 9e-13 1.45e-12 2.07e-12 2.74e-12 3.43e-12 4.15e-12 5.59e-12 6.99e-12 8.32e-12 9.57e-12 1.08e-11 1.19e-11 1.3e-11 1.4e-11 1.49e-11 1.59e-11 
09 00 09  02 02 01 7.7e-13 7.6e-13 7.7e-13 7.9e-13 8.1e-13 8.3e-13 8.5e-13 8.7e-13 8.9e-13 9.1e-13 9.3e-13 9.7e-13 1.01e-12 1.05e-12 1.1e-12 1.14e-12 1.19e-12 1.24e-12 1.29e-12 1.34e-12 1.39e-12 
09 00 09  02 02 00 1.05e-12 1.02e-12 1.01e-12 1.01e-12 1.02e-12 1.03e-12 1.05e-12 1.07e-12 1.1e-12 1.13e-12 1.16e-12 1.23e-12 1.29e-12 1.35e-12 1.41e-12 1.46e-12 1.5e-12 1.54e-12 1.58e-12 1.62e-12 1.65e-12 
09 00 09  03 02 02 1.2e-12 1.22e-12 1.26e-12 1.37e-12 1.49e-12 1.6e-12 1.71e-12 1.8e-12 1.9e-12 1.98e-12 2.06e-12 2.19e-12 2.31e-12 2.41e-12 2.5e-12 2.58e-12 2.65e-12 2.71e-12 2.77e-12 2.82e-12 2.86e-12 
09 00 09  03 02 01 9.7e-13 1e-12 1.03e-12 1.09e-12 1.16e-12 1.22e-12 1.28e-12 1.33e-12 1.39e-12 1.44e-12 1.49e-12 1.58e-12 1.66e-12 1.74e-12 1.82e-12 1.89e-12 1.97e-12 2.04e-12 2.11e-12 2.18e-12 2.25e-12 
09 00 09  04 02 03 1.95e-12 1.99e-12 2.05e-12 2.23e-12 2.39e-12 2.54e-12 2.64e-12 2.73e-12 2.8e-12 2.87e-12 2.92e-12 3.01e-12 3.1e-12 3.17e-12 3.24e-12 3.32e-12 3.4e-12 3.48e-12 3.56e-12 3.65e-12 3.74e-12 
09 00 09  04 02 02 4.44e-12 4.31e-12 4.27e-12 4.28e-12 4.34e-12 4.41e-12 4.48e-12 4.53e-12 4.59e-12 4.65e-12 4.71e-12 4.8e-12 4.88e-12 4.95e-12 5.01e-12 5.06e-12 5.11e-12 5.14e-12 5.18e-12 5.21e-12 5.23e-12 
09 00 09  05 02 04 1.15e-11 1.12e-11 1.1e-11 1.07e-11 1.05e-11 1.03e-11 1.01e-11 9.96e-12 9.8e-12 9.66e-12 9.54e-12 9.34e-12 9.18e-12 9.05e-12 8.94e-12 8.88e-12 8.88e-12 8.84e-12 8.82e-12 8.82e-12 8.84e-12 
09 00 09  05 02 03 5.8e-12 5.59e-12 5.48e-12 5.35e-12 5.29e-12 5.27e-12 5.26e-12 5.24e-12 5.23e-12 5.22e-12 5.22e-12 5.22e-12 5.23e-12 5.25e-12 5.27e-12 5.32e-12 5.37e-12 5.43e-12 5.51e-12 5.59e-12 5.68e-12 
09 00 09  06 02 05 1.24e-11 1.17e-11 1.13e-11 1.07e-11 1.02e-11 9.92e-12 9.67e-12 9.46e-12 9.3e-12 9.17e-12 9.06e-12 8.89e-12 8.79e-12 8.69e-12 8.73e-12 8.63e-12 8.65e-12 8.69e-12 8.75e-12 8.74e-12 8.82e-12 
09 00 09  06 02 04 1.56e-11 1.51e-11 1.47e-11 1.42e-11 1.38e-11 1.35e-11 1.32e-11 1.3e-11 1.28e-11 1.27e-11 1.24e-11 1.23e-11 1.2e-11 1.19e-11 1.17e-11 1.16e-11 1.15e-11 1.14e-11 1.13e-11 1.13e-11 1.13e-11 
09 00 09  07 02 06 1.65e-11 1.59e-11 1.53e-11 1.45e-11 1.37e-11 1.32e-11 1.29e-11 1.26e-11 1.24e-11 1.22e-11 1.21e-11 1.2e-11 1.19e-11 1.19e-11 1.19e-11 1.19e-11 1.19e-11 1.2e-11 1.21e-11 1.21e-11 1.23e-11 
09 00 09  07 02 05 1.15e-11 1.15e-11 1.13e-11 1.11e-11 1.08e-11 1.07e-11 1.06e-11 1.04e-11 1.03e-11 1.02e-11 1.02e-11 1.01e-11 1.01e-11 9.97e-12 9.97e-12 9.99e-12 1e-11 9.97e-12 1e-11 1.01e-11 1e-11 
09 00 09  08 02 07 1.11e-12 1.86e-12 2.39e-12 3.08e-12 3.54e-12 3.88e-12 4.17e-12 4.42e-12 4.66e-12 4.87e-12 5.09e-12 5.48e-12 5.86e-12 6.22e-12 6.57e-12 6.91e-12 7.23e-12 7.55e-12 7.85e-12 8.15e-12 8.44e-12 
09 00 09  08 02 06 5.1e-12 8.44e-12 1.08e-11 1.34e-11 1.49e-11 1.57e-11 1.62e-11 1.66e-11 1.69e-11 1.71e-11 1.72e-11 1.74e-11 1.76e-11 1.77e-11 1.78e-11 1.79e-11 1.79e-11 1.8e-11 1.8e-11 1.81e-11 1.82e-11 
09 00 09  09 02 08 1e-13 4.7e-13 1.01e-12 2.14e-12 3.07e-12 3.78e-12 4.31e-12 4.72e-12 5.04e-12 5.3e-12 5.52e-12 5.87e-12 6.16e-12 6.42e-12 6.67e-12 6.91e-12 7.14e-12 7.38e-12 7.61e-12 7.84e-12 8.07e-12 
09 00 09  09 02 07 1.3e-13 6.1e-13 1.33e-12 2.89e-12 4.34e-12 5.57e-12 6.66e-12 7.6e-12 8.43e-12 9.18e-12 9.86e-12 1.11e-11 1.21e-11 1.3e-11 1.38e-11 1.45e-11 1.52e-11 1.59e-11 1.64e-11 1.7e-11 1.75e-11 
09 00 09  10 02 09 0 4e-14 1.5e-13 6e-13 1.2e-12 1.85e-12 2.5e-12 3.12e-12 3.71e-12 4.26e-12 4.79e-12 5.75e-12 6.64e-12 7.41e-12 8.13e-12 8.8e-12 9.36e-12 9.97e-12 1.05e-11 1.1e-11 1.14e-11 
09 00 09  10 02 08 0 5e-14 2e-13 7.7e-13 1.51e-12 2.23e-12 2.87e-12 3.42e-12 3.92e-12 4.33e-12 4.7e-12 5.32e-12 5.83e-12 6.27e-12 6.66e-12 7.01e-12 7.35e-12 7.66e-12 7.96e-12 8.25e-12 8.49e-12 
09 00 09  11 02 10 0 0 4e-14 2.6e-13 6.8e-13 1.23e-12 1.8e-12 2.38e-12 2.93e-12 3.43e-12 3.92e-12 4.79e-12 5.58e-12 6.33e-12 6.94e-12 7.55e-12 8.05e-12 8.57e-12 9.06e-12 9.53e-12 9.96e-12 
09 00 09  11 02 09 0 0 1e-14 1.1e-13 3e-13 5.8e-13 9.1e-13 1.25e-12 1.6e-12 1.94e-12 2.27e-12 2.9e-12 3.47e-12 3.98e-12 4.45e-12 4.87e-12 5.26e-12 5.61e-12 5.92e-12 6.21e-12 6.47e-12 
09 00 09  04 04 01 0 1e-14 2e-14 6e-14 1.2e-13 1.8e-13 2.4e-13 2.9e-13 3.5e-13 4e-13 4.5e-13 5.5e-13 6.3e-13 7.1e-13 7.8e-13 8.5e-13 9.1e-13 9.7e-13 1.03e-12 1.08e-12 1.14e-12 
09 00 09  04 04 00 0 0 2e-14 5e-14 1e-13 1.5e-13 2e-13 2.5e-13 3.1e-13 3.6e-13 4.1e-13 5e-13 5.8e-13 6.6e-13 7.3e-13 8e-13 8.6e-13 9.2e-13 9.8e-13 1.04e-12 1.09e-12 
09 00 09  05 04 02 0 0 1e-14 6e-14 1.3e-13 2.2e-13 3.1e-13 4.1e-13 5e-13 5.9e-13 6.8e-13 8.4e-13 9.8e-13 1.12e-12 1.23e-12 1.35e-12 1.44e-12 1.54e-12 1.63e-12 1.72e-12 1.8e-12 
09 00 09  05 04 01 0 0 2e-14 7e-14 1.6e-13 2.7e-13 3.8e-13 4.9e-13 5.9e-13 6.9e-13 7.9e-13 9.6e-13 1.12e-12 1.26e-12 1.39e-12 1.51e-12 1.62e-12 1.72e-12 1.81e-12 1.9e-12 1.99e-12 
09 00 09  06 04 03 0 0 0 3e-14 7e-14 1.4e-13 2.1e-13 2.9e-13 3.7e-13 4.6e-13 5.4e-13 7.1e-13 8.7e-13 1.02e-12 1.17e-12 1.3e-12 1.43e-12 1.55e-12 1.67e-12 1.78e-12 1.88e-12 
09 00 09  06 04 02 0 0 1e-14 3e-14 9e-14 1.7e-13 2.6e-13 3.5e-13 4.6e-13 5.6e-13 6.6e-13 8.5e-13 1.03e-12 1.2e-12 1.35e-12 1.5e-12 1.63e-12 1.76e-12 1.87e-12 1.98e-12 2.09e-12 
09 00 09  07 04 04 0 0 0 1e-14 4e-14 8e-14 1.3e-13 1.9e-13 2.6e-13 3.3e-13 4.1e-13 5.7e-13 7.3e-13 9e-13 1.05e-12 1.21e-12 1.36e-12 1.51e-12 1.65e-12 1.8e-12 1.94e-12 
09 00 09  07 04 03 0 0 0 2e-14 5e-14 1.1e-13 1.9e-13 2.7e-13 3.6e-13 4.6e-13 5.5e-13 7.5e-13 9.4e-13 1.13e-12 1.31e-12 1.48e-12 1.64e-12 1.8e-12 1.95e-12 2.09e-12 2.23e-12 
10 00 10  00 00 00 2.7e-13 2.7e-13 2.8e-13 3e-13 3.3e-13 3.5e-13 3.7e-13 3.9e-13 4.1e-13 4.2e-13 4.4e-13 4.6e-13 4.8e-13 5e-13 5.2e-13 5.4e-13 5.5e-13 5.6e-13 5.7e-13 5.8e-13 5.8e-13 
10 00 10  01 00 01 3e-13 3.1e-13 3.3e-13 3.5e-13 3.8e-13 4e-13 4.2e-13 4.4e-13 4.6e-13 4.8e-13 5e-13 5.4e-13 5.9e-13 6.5e-13 7.1e-13 7.8e-13 8.6e-13 9.4e-13 1.03e-12 1.12e-12 1.21e-12 
10 00 10  02 00 02 1.22e-12 1.23e-12 1.25e-12 1.32e-12 1.4e-12 1.49e-12 1.57e-12 1.66e-12 1.74e-12 1.82e-12 1.9e-12 2.04e-12 2.17e-12 2.28e-12 2.39e-12 2.49e-12 2.57e-12 2.65e-12 2.72e-12 2.79e-12 2.85e-12 
10 00 10  03 00 03 4.8e-13 4.9e-13 5.1e-13 5.4e-13 5.9e-13 6.3e-13 6.9e-13 7.5e-13 8.2e-13 8.9e-13 9.7e-13 1.14e-12 1.32e-12 1.5e-12 1.69e-12 1.88e-12 2.07e-12 2.26e-12 2.46e-12 2.65e-12 2.84e-12 
10 00 10  04 00 04 1.61e-12 1.64e-12 1.7e-12 1.87e-12 2.07e-12 2.26e-12 2.44e-12 2.62e-12 2.78e-12 2.94e-12 3.08e-12 3.35e-12 3.6e-12 3.82e-12 4.04e-12 4.23e-12 4.42e-12 4.59e-12 4.75e-12 4.91e-12 5.05e-12 
10 00 10  05 00 05 6.7e-13 6.8e-13 7.3e-13 8.8e-13 1.07e-12 1.29e-12 1.53e-12 1.77e-12 2.02e-12 2.27e-12 2.51e-12 2.99e-12 3.45e-12 3.88e-12 4.3e-12 4.69e-12 5.06e-12 5.42e-12 5.76e-12 6.08e-12 6.39e-12 
10 00 10  06 00 06 2.07e-12 2.15e-12 2.3e-12 2.67e-12 3.07e-12 3.46e-12 3.83e-12 4.19e-12 4.54e-12 4.89e-12 5.22e-12 5.86e-12 6.47e-12 7.05e-12 7.59e-12 8.1e-12 8.57e-12 9.02e-12 9.43e-12 9.81e-12 1.02e-11 
10 00 10  07 00 07 5.4e-12 5.28e-12 5.34e-12 5.69e-12 6.14e-12 6.61e-12 7.07e-12 7.52e-12 7.94e-12 8.34e-12 8.72e-12 9.41e-12 1e-11 1.06e-11 1.11e-11 1.15e-11 1.2e-11 1.24e-11 1.27e-11 1.31e-11 1.34e-11 
10 00 10  08 00 08 8.87e-12 8.75e-12 8.95e-12 9.75e-12 1.08e-11 1.19e-11 1.31e-11 1.43e-11 1.54e-11 1.65e-11 1.75e-11 1.94e-11 2.12e-11 2.28e-11 2.43e-11 2.56e-11 2.69e-11 2.8e-11 2.91e-11 3.01e-11 3.1e-11 
10 00 10  09 00 09 3.85e-11 3.71e-11 3.63e-11 3.55e-11 3.52e-11 3.51e-11 3.52e-11 3.52e-11 3.54e-11 3.55e-11 3.57e-11 3.6e-11 3.64e-11 3.68e-11 3.72e-11 3.76e-11 3.8e-11 3.84e-11 3.87e-11 3.91e-11 3.95e-11 
10 00 10  10 00 10 0 0 0 0 0 0 0 0 0 0 0 0 0 0 0 0 0 0 0 0 0 
10 00 10  11 00 11 8.5e-13 3.01e-12 5.67e-12 1.08e-11 1.5e-11 1.82e-11 2.09e-11 2.31e-11 2.49e-11 2.65e-11 2.79e-11 3.01e-11 3.2e-11 3.36e-11 3.49e-11 3.61e-11 3.73e-11 3.82e-11 3.9e-11 3.98e-11 4.06e-11 
10 00 10  12 00 12 0 3e-14 1.1e-13 5.1e-13 1.19e-12 2.07e-12 3.09e-12 4.19e-12 5.36e-12 6.58e-12 7.78e-12 1.02e-11 1.25e-11 1.46e-11 1.68e-11 1.87e-11 2.06e-11 2.23e-11 2.4e-11 2.55e-11 2.7e-11 
10 00 10  02 02 01 4.2e-13 4.4e-13 4.4e-13 4.5e-13 4.6e-13 4.7e-13 4.9e-13 5.1e-13 5.4e-13 5.6e-13 5.9e-13 6.6e-13 7.2e-13 7.9e-13 8.5e-13 9.2e-13 9.7e-13 1.03e-12 1.08e-12 1.13e-12 1.18e-12 
10 00 10  02 02 00 6e-13 6e-13 6.1e-13 6.4e-13 6.6e-13 6.9e-13 7e-13 7.3e-13 7.5e-13 7.8e-13 8e-13 8.6e-13 9.2e-13 9.8e-13 1.05e-12 1.11e-12 1.17e-12 1.23e-12 1.28e-12 1.34e-12 1.39e-12 
10 00 10  03 02 02 9.5e-13 9.3e-13 9.2e-13 9.2e-13 9.3e-13 9.6e-13 9.9e-13 1.03e-12 1.07e-12 1.12e-12 1.16e-12 1.26e-12 1.34e-12 1.43e-12 1.51e-12 1.59e-12 1.66e-12 1.73e-12 1.8e-12 1.86e-12 1.93e-12 
10 00 10  03 02 01 7.5e-13 7.7e-13 8e-13 8.5e-13 9e-13 9.5e-13 1e-12 1.06e-12 1.12e-12 1.18e-12 1.25e-12 1.36e-12 1.46e-12 1.56e-12 1.66e-12 1.74e-12 1.82e-12 1.9e-12 1.96e-12 2.03e-12 2.08e-12 
10 00 10  04 02 03 1.3e-12 1.36e-12 1.44e-12 1.6e-12 1.76e-12 1.9e-12 2.03e-12 2.15e-12 2.26e-12 2.35e-12 2.42e-12 2.55e-12 2.66e-12 2.76e-12 2.84e-12 2.91e-12 2.96e-12 3.01e-12 3.06e-12 3.11e-12 3.14e-12 
10 00 10  04 02 02 1.27e-12 1.29e-12 1.33e-12 1.41e-12 1.51e-12 1.59e-12 1.67e-12 1.75e-12 1.83e-12 1.89e-12 1.96e-12 2.08e-12 2.19e-12 2.3e-12 2.4e-12 2.5e-12 2.59e-12 2.67e-12 2.76e-12 2.85e-12 2.93e-12 
10 00 10  05 02 04 2.82e-12 2.82e-12 2.88e-12 3.01e-12 3.15e-12 3.27e-12 3.39e-12 3.46e-12 3.52e-12 3.56e-12 3.61e-12 3.67e-12 3.74e-12 3.79e-12 3.84e-12 3.9e-12 3.97e-12 4.04e-12 4.12e-12 4.21e-12 4.29e-12 
10 00 10  05 02 03 4.53e-12 4.46e-12 4.47e-12 4.53e-12 4.59e-12 4.64e-12 4.71e-12 4.76e-12 4.8e-12 4.85e-12 4.9e-12 4.98e-12 5.05e-12 5.11e-12 5.17e-12 5.22e-12 5.27e-12 5.32e-12 5.36e-12 5.4e-12 5.43e-12 
10 00 10  06 02 05 1.14e-11 1.12e-11 1.11e-11 1.09e-11 1.08e-11 1.06e-11 1.04e-11 1.03e-11 1.01e-11 9.98e-12 9.86e-12 9.66e-12 9.51e-12 9.39e-12 9.31e-12 9.21e-12 9.18e-12 9.18e-12 9.13e-12 9.12e-12 9.12e-12 
10 00 10  06 02 04 6.88e-12 6.64e-12 6.49e-12 6.3e-12 6.17e-12 6.1e-12 6.03e-12 6e-12 5.96e-12 5.94e-12 5.93e-12 5.93e-12 5.95e-12 5.99e-12 6.04e-12 6.1e-12 6.16e-12 6.22e-12 6.29e-12 6.36e-12 6.43e-12 
10 00 10  07 02 06 1.31e-11 1.26e-11 1.22e-11 1.16e-11 1.11e-11 1.08e-11 1.05e-11 1.03e-11 1.01e-11 9.94e-12 9.82e-12 9.65e-12 9.54e-12 9.49e-12 9.47e-12 9.5e-12 9.56e-12 9.57e-12 9.59e-12 9.64e-12 9.7e-12 
10 00 10  07 02 05 1.48e-11 1.44e-11 1.42e-11 1.38e-11 1.34e-11 1.32e-11 1.3e-11 1.28e-11 1.26e-11 1.25e-11 1.24e-11 1.23e-11 1.21e-11 1.21e-11 1.21e-11 1.2e-11 1.19e-11 1.2e-11 1.2e-11 1.19e-11 1.2e-11 
10 00 10  08 02 07 1.42e-11 1.4e-11 1.38e-11 1.34e-11 1.3e-11 1.26e-11 1.24e-11 1.23e-11 1.22e-11 1.2e-11 1.2e-11 1.2e-11 1.2e-11 1.2e-11 1.22e-11 1.23e-11 1.25e-11 1.26e-11 1.27e-11 1.29e-11 1.3e-11 
10 00 10  08 02 06 1.17e-11 1.18e-11 1.18e-11 1.17e-11 1.16e-11 1.14e-11 1.13e-11 1.12e-11 1.1e-11 1.09e-11 1.09e-11 1.07e-11 1.07e-11 1.06e-11 1.06e-11 1.06e-11 1.06e-11 1.07e-11 1.07e-11 1.08e-11 1.08e-11 
10 00 10  09 02 08 1.78e-12 2.65e-12 3.2e-12 3.84e-12 4.22e-12 4.49e-12 4.71e-12 4.91e-12 5.09e-12 5.26e-12 5.42e-12 5.73e-12 6.02e-12 6.3e-12 6.56e-12 6.81e-12 7.05e-12 7.29e-12 7.52e-12 7.74e-12 7.95e-12 
10 00 10  09 02 07 8.97e-12 1.31e-11 1.56e-11 1.79e-11 1.88e-11 1.91e-11 1.93e-11 1.93e-11 1.93e-11 1.93e-11 1.92e-11 1.91e-11 1.91e-11 1.9e-11 1.9e-11 1.91e-11 1.91e-11 1.92e-11 1.92e-11 1.93e-11 1.95e-11 
10 00 10  10 02 09 9e-14 4.2e-13 9.1e-13 1.94e-12 2.81e-12 3.5e-12 4.04e-12 4.47e-12 4.82e-12 5.11e-12 5.36e-12 5.77e-12 6.09e-12 6.38e-12 6.63e-12 6.86e-12 7.08e-12 7.29e-12 7.49e-12 7.68e-12 7.86e-12 
10 00 10  10 02 08 1.3e-13 6.3e-13 1.36e-12 2.97e-12 4.47e-12 5.73e-12 6.89e-12 7.86e-12 8.77e-12 9.6e-12 1.04e-11 1.17e-11 1.29e-11 1.39e-11 1.49e-11 1.57e-11 1.65e-11 1.72e-11 1.78e-11 1.85e-11 1.91e-11 
10 00 10  11 02 10 0 3e-14 1.3e-13 5.3e-13 1.09e-12 1.72e-12 2.35e-12 2.96e-12 3.55e-12 4.12e-12 4.66e-12 5.69e-12 6.6e-12 7.44e-12 8.24e-12 9e-12 9.73e-12 1.04e-11 1.1e-11 1.16e-11 1.22e-11 
10 00 10  11 02 09 0 4e-14 1.8e-13 7.6e-13 1.54e-12 2.34e-12 3.08e-12 3.74e-12 4.32e-12 4.87e-12 5.35e-12 6.12e-12 6.78e-12 7.38e-12 7.83e-12 8.28e-12 8.61e-12 8.97e-12 9.3e-12 9.6e-12 9.88e-12 
10 00 10  04 04 01 1e-14 3e-14 5e-14 9e-14 1.3e-13 1.8e-13 2.2e-13 2.6e-13 2.9e-13 3.3e-13 3.7e-13 4.3e-13 5e-13 5.6e-13 6.2e-13 6.7e-13 7.3e-13 7.8e-13 8.3e-13 8.8e-13 9.3e-13 
10 00 10  04 04 00 1e-14 3e-14 5e-14 1e-13 1.5e-13 2e-13 2.5e-13 3e-13 3.5e-13 3.9e-13 4.3e-13 5.1e-13 5.8e-13 6.5e-13 7.1e-13 7.8e-13 8.4e-13 9.1e-13 9.8e-13 1.05e-12 1.12e-12 
10 00 10  05 04 02 0 2e-14 6e-14 1.6e-13 2.8e-13 4.1e-13 5.2e-13 6.3e-13 7.4e-13 8.3e-13 9.2e-13 1.09e-12 1.24e-12 1.37e-12 1.5e-12 1.62e-12 1.74e-12 1.86e-12 1.99e-12 2.11e-12 2.24e-12 
10 00 10  05 04 01 0 2e-14 5e-14 1.4e-13 2.4e-13 3.4e-13 4.5e-13 5.5e-13 6.6e-13 7.5e-13 8.4e-13 1.01e-12 1.16e-12 1.3e-12 1.43e-12 1.55e-12 1.66e-12 1.77e-12 1.88e-12 1.99e-12 2.09e-12 
10 00 10  06 04 03 0 1e-14 3e-14 1.1e-13 2.1e-13 3.2e-13 4.4e-13 5.5e-13 6.6e-13 7.7e-13 8.6e-13 1.05e-12 1.22e-12 1.38e-12 1.52e-12 1.66e-12 1.8e-12 1.93e-12 2.06e-12 2.19e-12 2.31e-12 
10 00 10  06 04 02 0 1e-14 4e-14 1.2e-13 2.5e-13 3.8e-13 5.1e-13 6.5e-13 7.7e-13 9e-13 1.01e-12 1.23e-12 1.44e-12 1.63e-12 1.81e-12 1.98e-12 2.14e-12 2.31e-12 2.47e-12 2.62e-12 2.78e-12 
10 00 10  07 04 04 0 0 1e-14 4e-14 1e-13 1.8e-13 2.7e-13 3.6e-13 4.6e-13 5.5e-13 6.4e-13 8.2e-13 9.9e-13 1.15e-12 1.3e-12 1.45e-12 1.59e-12 1.72e-12 1.85e-12 1.97e-12 2.09e-12 
10 00 10  07 04 03 0 0 1e-14 5e-14 1.3e-13 2.3e-13 3.4e-13 4.6e-13 5.8e-13 7e-13 8.2e-13 1.05e-12 1.28e-12 1.49e-12 1.7e-12 1.9e-12 2.1e-12 2.29e-12 2.49e-12 2.68e-12 2.87e-12 
11 00 11  00 00 00 9e-14 9e-14 9e-14 1e-13 1.1e-13 1.1e-13 1.2e-13 1.2e-13 1.3e-13 1.3e-13 1.4e-13 1.4e-13 1.5e-13 1.5e-13 1.6e-13 1.6e-13 1.7e-13 1.8e-13 1.9e-13 1.9e-13 2e-13 
11 00 11  01 00 01 6.8e-13 6.6e-13 6.6e-13 7e-13 7.4e-13 7.9e-13 8.4e-13 8.8e-13 9.2e-13 9.6e-13 1e-12 1.07e-12 1.14e-12 1.2e-12 1.25e-12 1.3e-12 1.35e-12 1.39e-12 1.43e-12 1.47e-12 1.5e-12 
11 00 11  02 00 02 4.9e-13 4.7e-13 4.7e-13 4.8e-13 4.9e-13 5.1e-13 5.3e-13 5.4e-13 5.6e-13 5.7e-13 5.9e-13 6.2e-13 6.6e-13 7.1e-13 7.5e-13 8.1e-13 8.6e-13 9.2e-13 9.8e-13 1.04e-12 1.1e-12 
11 00 11  03 00 03 1.45e-12 1.4e-12 1.41e-12 1.48e-12 1.57e-12 1.66e-12 1.75e-12 1.83e-12 1.91e-12 1.99e-12 2.06e-12 2.2e-12 2.33e-12 2.47e-12 2.59e-12 2.72e-12 2.85e-12 2.98e-12 3.12e-12 3.25e-12 3.39e-12 
11 00 11  04 00 04 5.4e-13 5.2e-13 5.2e-13 5.4e-13 5.8e-13 6.2e-13 6.8e-13 7.4e-13 8e-13 8.7e-13 9.4e-13 1.1e-12 1.26e-12 1.43e-12 1.6e-12 1.77e-12 1.94e-12 2.11e-12 2.28e-12 2.44e-12 2.6e-12 
11 00 11  05 00 05 1.76e-12 1.74e-12 1.78e-12 1.94e-12 2.12e-12 2.3e-12 2.47e-12 2.63e-12 2.78e-12 2.92e-12 3.05e-12 3.32e-12 3.57e-12 3.82e-12 4.07e-12 4.32e-12 4.57e-12 4.82e-12 5.07e-12 5.32e-12 5.57e-12 
11 00 11  06 00 06 4.6e-13 4.8e-13 5.3e-13 6.8e-13 8.9e-13 1.12e-12 1.37e-12 1.62e-12 1.88e-12 2.14e-12 2.39e-12 2.88e-12 3.35e-12 3.8e-12 4.23e-12 4.64e-12 5.03e-12 5.42e-12 5.79e-12 6.15e-12 6.51e-12 
11 00 11  07 00 07 1.87e-12 1.91e-12 2.05e-12 2.39e-12 2.74e-12 3.08e-12 3.41e-12 3.73e-12 4.05e-12 4.37e-12 4.7e-12 5.35e-12 6e-12 6.64e-12 7.27e-12 7.88e-12 8.46e-12 9.02e-12 9.56e-12 1.01e-11 1.06e-11 
11 00 11  08 00 08 4.89e-12 4.86e-12 5e-12 5.44e-12 5.94e-12 6.43e-12 6.91e-12 7.35e-12 7.77e-12 8.16e-12 8.52e-12 9.18e-12 9.76e-12 1.03e-11 1.08e-11 1.12e-11 1.16e-11 1.2e-11 1.24e-11 1.27e-11 1.3e-11 
11 00 11  09 00 09 6.44e-12 6.56e-12 6.91e-12 7.9e-12 9.02e-12 1.02e-11 1.13e-11 1.24e-11 1.35e-11 1.45e-11 1.56e-11 1.74e-11 1.92e-11 2.08e-11 2.23e-11 2.36e-11 2.49e-11 2.6e-11 2.71e-11 2.81e-11 2.9e-11 
11 00 11  10 00 10 3.63e-11 3.56e-11 3.54e-11 3.55e-11 3.57e-11 3.59e-11 3.62e-11 3.65e-11 3.68e-11 3.71e-11 3.74e-11 3.79e-11 3.85e-11 3.9e-11 3.95e-11 4e-11 4.05e-11 4.09e-11 4.13e-11 4.17e-11 4.21e-11 
11 00 11  11 00 11 0 0 0 0 0 0 0 0 0 0 0 0 0 0 0 0 0 0 0 0 0 
11 00 11  12 00 12 6e-13 2.43e-12 4.93e-12 1.01e-11 1.45e-11 1.81e-11 2.1e-11 2.35e-11 2.55e-11 2.73e-11 2.89e-11 3.15e-11 3.37e-11 3.55e-11 3.7e-11 3.84e-11 3.96e-11 4.07e-11 4.17e-11 4.26e-11 4.34e-11 
11 00 11  02 02 01 5e-13 4.8e-13 4.8e-13 4.8e-13 4.9e-13 5e-13 5.1e-13 5.2e-13 5.3e-13 5.5e-13 5.6e-13 6e-13 6.4e-13 6.8e-13 7.3e-13 7.7e-13 8.2e-13 8.6e-13 9.1e-13 9.5e-13 9.9e-13 
11 00 11  02 02 00 2.1e-13 2e-13 2e-13 2.1e-13 2.1e-13 2.2e-13 2.3e-13 2.4e-13 2.6e-13 2.7e-13 2.9e-13 3.4e-13 3.9e-13 4.4e-13 4.8e-13 5.3e-13 5.8e-13 6.3e-13 6.7e-13 7.1e-13 7.5e-13 
11 00 11  03 02 02 5e-13 4.8e-13 4.7e-13 4.7e-13 4.8e-13 5e-13 5.3e-13 5.6e-13 5.9e-13 6.3e-13 6.6e-13 7.4e-13 8.1e-13 8.8e-13 9.5e-13 1.02e-12 1.08e-12 1.14e-12 1.2e-12 1.26e-12 1.32e-12 
11 00 11  03 02 01 7.3e-13 7.1e-13 7e-13 7.1e-13 7.2e-13 7.5e-13 7.7e-13 8e-13 8.3e-13 8.6e-13 8.9e-13 9.6e-13 1.03e-12 1.1e-12 1.17e-12 1.24e-12 1.31e-12 1.38e-12 1.45e-12 1.52e-12 1.58e-12 
11 00 11  04 02 03 9.2e-13 8.8e-13 8.8e-13 9e-13 9.4e-13 9.9e-13 1.04e-12 1.1e-12 1.16e-12 1.21e-12 1.27e-12 1.36e-12 1.47e-12 1.55e-12 1.64e-12 1.73e-12 1.81e-12 1.9e-12 1.98e-12 2.07e-12 2.15e-12 
11 00 11  04 02 02 6.8e-13 6.8e-13 7e-13 7.5e-13 8e-13 8.7e-13 9.4e-13 1.01e-12 1.08e-12 1.15e-12 1.22e-12 1.35e-12 1.48e-12 1.59e-12 1.7e-12 1.8e-12 1.89e-12 1.98e-12 2.05e-12 2.13e-12 2.2e-12 
11 00 11  05 02 04 1.52e-12 1.54e-12 1.6e-12 1.75e-12 1.9e-12 2.04e-12 2.17e-12 2.28e-12 2.38e-12 2.48e-12 2.55e-12 2.69e-12 2.81e-12 2.9e-12 2.98e-12 3.05e-12 3.12e-12 3.17e-12 3.22e-12 3.26e-12 3.31e-12 
11 00 11  05 02 03 1.77e-12 1.74e-12 1.75e-12 1.81e-12 1.88e-12 1.95e-12 2.03e-12 2.11e-12 2.19e-12 2.26e-12 2.34e-12 2.48e-12 2.62e-12 2.76e-12 2.88e-12 3.02e-12 3.15e-12 3.29e-12 3.42e-12 3.56e-12 3.69e-12 
11 00 11  06 02 05 3.63e-12 3.55e-12 3.58e-12 3.69e-12 3.8e-12 3.91e-12 4e-12 4.06e-12 4.12e-12 4.19e-12 4.23e-12 4.32e-12 4.41e-12 4.49e-12 4.59e-12 4.7e-12 4.81e-12 4.95e-12 5.08e-12 5.23e-12 5.4e-12 
11 00 11  06 02 04 4.66e-12 4.54e-12 4.51e-12 4.55e-12 4.61e-12 4.69e-12 4.78e-12 4.85e-12 4.95e-12 5.01e-12 5.1e-12 5.25e-12 5.4e-12 5.52e-12 5.65e-12 5.75e-12 5.86e-12 5.95e-12 6.03e-12 6.1e-12 6.17e-12 
11 00 11  07 02 06 1.1e-11 1.07e-11 1.06e-11 1.05e-11 1.04e-11 1.03e-11 1.02e-11 1.01e-11 9.99e-12 9.9e-12 9.82e-12 9.67e-12 9.56e-12 9.46e-12 9.39e-12 9.34e-12 9.29e-12 9.25e-12 9.25e-12 9.21e-12 9.2e-12 
11 00 11  07 02 05 7.5e-12 7.17e-12 7e-12 6.82e-12 6.72e-12 6.62e-12 6.58e-12 6.54e-12 6.53e-12 6.52e-12 6.53e-12 6.55e-12 6.61e-12 6.71e-12 6.81e-12 6.93e-12 7.05e-12 7.19e-12 7.33e-12 7.47e-12 7.62e-12 
11 00 11  08 02 07 1.32e-11 1.27e-11 1.25e-11 1.2e-11 1.17e-11 1.14e-11 1.12e-11 1.1e-11 1.08e-11 1.06e-11 1.05e-11 1.04e-11 1.03e-11 1.03e-11 1.03e-11 1.04e-11 1.04e-11 1.05e-11 1.07e-11 1.08e-11 1.09e-11 
11 00 11  08 02 06 1.38e-11 1.34e-11 1.31e-11 1.28e-11 1.26e-11 1.24e-11 1.22e-11 1.21e-11 1.2e-11 1.19e-11 1.18e-11 1.17e-11 1.16e-11 1.15e-11 1.14e-11 1.14e-11 1.13e-11 1.14e-11 1.13e-11 1.13e-11 1.13e-11 
11 00 11  09 02 08 1.3e-11 1.29e-11 1.28e-11 1.25e-11 1.23e-11 1.2e-11 1.19e-11 1.18e-11 1.17e-11 1.16e-11 1.16e-11 1.15e-11 1.16e-11 1.16e-11 1.16e-11 1.17e-11 1.17e-11 1.18e-11 1.19e-11 1.19e-11 1.2e-11 
11 00 11  09 02 07 1.24e-11 1.24e-11 1.24e-11 1.23e-11 1.23e-11 1.22e-11 1.21e-11 1.2e-11 1.2e-11 1.19e-11 1.19e-11 1.19e-11 1.2e-11 1.21e-11 1.21e-11 1.23e-11 1.24e-11 1.25e-11 1.26e-11 1.28e-11 1.3e-11 
11 00 11  10 02 09 2.81e-12 3.71e-12 4.21e-12 4.72e-12 4.99e-12 5.18e-12 5.34e-12 5.48e-12 5.63e-12 5.77e-12 5.92e-12 6.2e-12 6.5e-12 6.78e-12 7.06e-12 7.34e-12 7.61e-12 7.87e-12 8.12e-12 8.36e-12 8.6e-12 
11 00 11  10 02 08 1.29e-11 1.69e-11 1.91e-11 2.08e-11 2.13e-11 2.14e-11 2.13e-11 2.12e-11 2.11e-11 2.1e-11 2.09e-11 2.07e-11 2.06e-11 2.06e-11 2.05e-11 2.06e-11 2.05e-11 2.06e-11 2.07e-11 2.08e-11 2.08e-11 
11 00 11  11 02 10 9e-14 4.1e-13 8.8e-13 1.89e-12 2.76e-12 3.47e-12 4.04e-12 4.51e-12 4.91e-12 5.24e-12 5.54e-12 6.02e-12 6.44e-12 6.79e-12 7.1e-12 7.4e-12 7.67e-12 7.94e-12 8.19e-12 8.44e-12 8.72e-12 
11 00 11  11 02 09 1.4e-13 6.6e-13 1.43e-12 3.12e-12 4.62e-12 5.92e-12 7.02e-12 7.96e-12 8.82e-12 9.54e-12 1.02e-11 1.15e-11 1.25e-11 1.35e-11 1.43e-11 1.52e-11 1.59e-11 1.66e-11 1.72e-11 1.78e-11 1.84e-11 
11 00 11  04 04 01 1e-13 1.1e-13 1.3e-13 1.7e-13 2.2e-13 2.7e-13 3.2e-13 3.7e-13 4.1e-13 4.6e-13 5e-13 5.9e-13 6.8e-13 7.6e-13 8.4e-13 9.2e-13 1e-12 1.08e-12 1.15e-12 1.22e-12 1.3e-12 
11 00 11  04 04 00 1.1e-13 1.2e-13 1.3e-13 1.6e-13 1.9e-13 2.3e-13 2.7e-13 3.1e-13 3.5e-13 4e-13 4.4e-13 5.3e-13 6.2e-13 7.1e-13 8e-13 8.9e-13 9.9e-13 1.08e-12 1.17e-12 1.26e-12 1.35e-12 
11 00 11  05 04 02 9e-14 1.4e-13 1.8e-13 2.6e-13 3.4e-13 4.2e-13 5e-13 5.8e-13 6.6e-13 7.4e-13 8.2e-13 9.7e-13 1.1e-12 1.24e-12 1.37e-12 1.5e-12 1.63e-12 1.76e-12 1.88e-12 2.01e-12 2.14e-12 
11 00 11  05 04 01 1e-13 1.5e-13 1.9e-13 2.8e-13 3.7e-13 4.6e-13 5.4e-13 6.3e-13 7.1e-13 7.9e-13 8.7e-13 1.01e-12 1.15e-12 1.28e-12 1.41e-12 1.54e-12 1.66e-12 1.78e-12 1.91e-12 2.03e-12 2.16e-12 
11 00 11  06 04 03 4e-14 1.1e-13 2e-13 3.9e-13 5.8e-13 7.5e-13 9.1e-13 1.06e-12 1.19e-12 1.31e-12 1.42e-12 1.63e-12 1.81e-12 1.98e-12 2.13e-12 2.28e-12 2.42e-12 2.56e-12 2.68e-12 2.81e-12 2.93e-12 
11 00 11  06 04 02 3e-14 1e-13 1.7e-13 3.3e-13 4.8e-13 6.1e-13 7.4e-13 8.6e-13 9.7e-13 1.08e-12 1.19e-12 1.39e-12 1.57e-12 1.76e-12 1.95e-12 2.13e-12 2.32e-12 2.51e-12 2.7e-12 2.89e-12 3.08e-12 
11 00 11  07 04 04 0 3e-14 8e-14 2.1e-13 3.7e-13 5.2e-13 6.8e-13 8.2e-13 9.6e-13 1.09e-12 1.21e-12 1.44e-12 1.66e-12 1.86e-12 2.05e-12 2.24e-12 2.42e-12 2.59e-12 2.77e-12 2.94e-12 3.11e-12 
11 00 11  07 04 03 0 3e-14 7e-14 2e-13 3.6e-13 5.2e-13 6.9e-13 8.5e-13 1e-12 1.15e-12 1.29e-12 1.55e-12 1.81e-12 2.04e-12 2.27e-12 2.5e-12 2.71e-12 2.93e-12 3.14e-12 3.36e-12 3.56e-12 
12 00 12  00 00 00 1.2e-13 1.2e-13 1.3e-13 1.4e-13 1.5e-13 1.7e-13 1.8e-13 2e-13 2.1e-13 2.2e-13 2.4e-13 2.6e-13 2.8e-13 3e-13 3.2e-13 3.4e-13 3.6e-13 3.7e-13 3.9e-13 4e-13 4.1e-13 
12 00 12  01 00 01 2.1e-13 2.1e-13 2.1e-13 2.2e-13 2.3e-13 2.4e-13 2.5e-13 2.6e-13 2.7e-13 2.8e-13 2.9e-13 3.1e-13 3.3e-13 3.6e-13 3.8e-13 4.1e-13 4.4e-13 4.8e-13 5.2e-13 5.6e-13 6e-13 
12 00 12  02 00 02 6.9e-13 7e-13 7.3e-13 7.9e-13 8.6e-13 9.3e-13 9.9e-13 1.05e-12 1.12e-12 1.18e-12 1.24e-12 1.35e-12 1.46e-12 1.57e-12 1.67e-12 1.76e-12 1.84e-12 1.92e-12 2e-12 2.06e-12 2.12e-12 
12 00 12  03 00 03 5e-13 4.9e-13 4.9e-13 5.1e-13 5.3e-13 5.5e-13 5.7e-13 5.8e-13 6e-13 6.2e-13 6.4e-13 6.9e-13 7.5e-13 8.2e-13 9e-13 9.9e-13 1.09e-12 1.2e-12 1.32e-12 1.44e-12 1.57e-12 
12 00 12  04 00 04 1.25e-12 1.27e-12 1.31e-12 1.43e-12 1.55e-12 1.67e-12 1.78e-12 1.89e-12 1.99e-12 2.09e-12 2.18e-12 2.36e-12 2.53e-12 2.69e-12 2.85e-12 3.01e-12 3.17e-12 3.33e-12 3.49e-12 3.65e-12 3.81e-12 
12 00 12  05 00 05 4.9e-13 4.9e-13 4.9e-13 5.2e-13 5.6e-13 6.1e-13 6.7e-13 7.3e-13 8e-13 8.8e-13 9.6e-13 1.13e-12 1.33e-12 1.54e-12 1.75e-12 1.98e-12 2.22e-12 2.46e-12 2.71e-12 2.96e-12 3.22e-12 
12 00 12  06 00 06 1.59e-12 1.62e-12 1.71e-12 1.9e-12 2.09e-12 2.26e-12 2.41e-12 2.55e-12 2.68e-12 2.81e-12 2.93e-12 3.18e-12 3.44e-12 3.71e-12 3.99e-12 4.28e-12 4.58e-12 4.88e-12 5.19e-12 5.51e-12 5.83e-12 
12 00 12  07 00 07 3.4e-13 3.7e-13 4.3e-13 6e-13 8.1e-13 1.05e-12 1.32e-12 1.6e-12 1.89e-12 2.19e-12 2.49e-12 3.08e-12 3.67e-12 4.24e-12 4.8e-12 5.34e-12 5.88e-12 6.42e-12 6.95e-12 7.48e-12 8.01e-12 
12 00 12  08 00 08 1.71e-12 1.77e-12 1.88e-12 2.14e-12 2.39e-12 2.62e-12 2.85e-12 3.07e-12 3.29e-12 3.53e-12 3.76e-12 4.27e-12 4.8e-12 5.35e-12 5.91e-12 6.47e-12 7.04e-12 7.6e-12 8.16e-12 8.71e-12 9.25e-12 
12 00 12  09 00 09 4.43e-12 4.58e-12 4.85e-12 5.5e-12 6.17e-12 6.85e-12 7.52e-12 8.17e-12 8.8e-12 9.4e-12 9.98e-12 1.11e-11 1.21e-11 1.3e-11 1.38e-11 1.46e-11 1.53e-11 1.6e-11 1.66e-11 1.71e-11 1.77e-11 
12 00 12  10 00 10 4.34e-12 4.69e-12 5.18e-12 6.28e-12 7.47e-12 8.69e-12 9.92e-12 1.11e-11 1.23e-11 1.35e-11 1.46e-11 1.67e-11 1.86e-11 2.03e-11 2.2e-11 2.35e-11 2.49e-11 2.62e-11 2.74e-11 2.85e-11 2.96e-11 
12 00 12  11 00 11 3.65e-11 3.66e-11 3.69e-11 3.75e-11 3.81e-11 3.85e-11 3.89e-11 3.93e-11 3.97e-11 4e-11 4.04e-11 4.11e-11 4.18e-11 4.24e-11 4.3e-11 4.36e-11 4.41e-11 4.46e-11 4.51e-11 4.55e-11 4.59e-11 
12 00 12  12 00 12 0 0 0 0 0 0 0 0 0 0 0 0 0 0 0 0 0 0 0 0 0 
12 00 12  02 02 01 1.5e-13 1.5e-13 1.5e-13 1.5e-13 1.5e-13 1.5e-13 1.6e-13 1.6e-13 1.7e-13 1.7e-13 1.8e-13 1.9e-13 2.1e-13 2.2e-13 2.4e-13 2.6e-13 2.8e-13 2.9e-13 3.1e-13 3.3e-13 3.4e-13 
12 00 12  02 02 00 3e-13 3e-13 3e-13 3.2e-13 3.3e-13 3.4e-13 3.5e-13 3.6e-13 3.7e-13 3.8e-13 3.9e-13 4.1e-13 4.3e-13 4.5e-13 4.8e-13 5.1e-13 5.4e-13 5.6e-13 5.9e-13 6.2e-13 6.6e-13 
12 00 12  03 02 02 4.2e-13 4.3e-13 4.4e-13 4.6e-13 4.8e-13 5e-13 5.3e-13 5.5e-13 5.8e-13 6.1e-13 6.3e-13 7e-13 7.6e-13 8.3e-13 9e-13 9.6e-13 1.02e-12 1.08e-12 1.13e-12 1.18e-12 1.22e-12 
12 00 12  03 02 01 1.8e-13 1.8e-13 1.8e-13 1.9e-13 2e-13 2.1e-13 2.3e-13 2.5e-13 2.7e-13 2.9e-13 3.2e-13 3.7e-13 4.3e-13 4.8e-13 5.4e-13 6e-13 6.5e-13 7.1e-13 7.6e-13 8.1e-13 8.7e-13 
12 00 12  04 02 03 3e-13 3.1e-13 3.1e-13 3.4e-13 3.7e-13 4.2e-13 4.7e-13 5.3e-13 5.9e-13 6.5e-13 7.1e-13 8.3e-13 9.5e-13 1.05e-12 1.15e-12 1.25e-12 1.33e-12 1.42e-12 1.49e-12 1.57e-12 1.64e-12 
12 00 12  04 02 02 5.8e-13 5.8e-13 5.9e-13 6.1e-13 6.4e-13 6.7e-13 7.1e-13 7.6e-13 8.1e-13 8.5e-13 9.1e-13 1.01e-12 1.12e-12 1.22e-12 1.32e-12 1.42e-12 1.51e-12 1.6e-12 1.69e-12 1.77e-12 1.85e-12 
12 00 12  05 02 04 7.9e-13 8e-13 8.2e-13 8.9e-13 9.6e-13 1.06e-12 1.15e-12 1.25e-12 1.34e-12 1.44e-12 1.53e-12 1.7e-12 1.85e-12 1.99e-12 2.11e-12 2.22e-12 2.31e-12 2.4e-12 2.48e-12 2.55e-12 2.62e-12 
12 00 12  05 02 03 5.9e-13 6.2e-13 6.6e-13 7.5e-13 8.3e-13 9.3e-13 1.01e-12 1.1e-12 1.19e-12 1.28e-12 1.37e-12 1.52e-12 1.67e-12 1.8e-12 1.92e-12 2.03e-12 2.13e-12 2.22e-12 2.3e-12 2.38e-12 2.44e-12 
12 00 12  06 02 05 1.37e-12 1.46e-12 1.57e-12 1.79e-12 2e-12 2.18e-12 2.35e-12 2.49e-12 2.62e-12 2.74e-12 2.85e-12 3.03e-12 3.19e-12 3.32e-12 3.42e-12 3.53e-12 3.61e-12 3.68e-12 3.75e-12 3.8e-12 3.86e-12 
12 00 12  06 02 04 1.9e-12 1.9e-12 1.95e-12 2.04e-12 2.13e-12 2.21e-12 2.29e-12 2.36e-12 2.44e-12 2.5e-12 2.57e-12 2.71e-12 2.83e-12 2.97e-12 3.1e-12 3.23e-12 3.34e-12 3.47e-12 3.58e-12 3.7e-12 3.81e-12 
12 00 12  07 02 06 3.59e-12 3.68e-12 3.79e-12 4e-12 4.17e-12 4.29e-12 4.39e-12 4.46e-12 4.52e-12 4.58e-12 4.6e-12 4.67e-12 4.73e-12 4.77e-12 4.83e-12 4.87e-12 4.93e-12 4.98e-12 5.05e-12 5.12e-12 5.19e-12 
12 00 12  07 02 05 4.03e-12 4.07e-12 4.14e-12 4.26e-12 4.4e-12 4.5e-12 4.58e-12 4.68e-12 4.73e-12 4.8e-12 4.86e-12 4.97e-12 5.09e-12 5.19e-12 5.3e-12 5.41e-12 5.5e-12 5.6e-12 5.68e-12 5.78e-12 5.87e-12 
12 00 12  08 02 07 8.9e-12 9.03e-12 9.21e-12 9.47e-12 9.61e-12 9.63e-12 9.63e-12 9.6e-12 9.57e-12 9.53e-12 9.47e-12 9.36e-12 9.27e-12 9.18e-12 9.12e-12 9.06e-12 9.02e-12 8.99e-12 8.97e-12 8.96e-12 8.95e-12 
12 00 12  08 02 06 7.08e-12 6.99e-12 6.93e-12 6.87e-12 6.83e-12 6.78e-12 6.73e-12 6.72e-12 6.69e-12 6.67e-12 6.67e-12 6.68e-12 6.72e-12 6.79e-12 6.9e-12 7.03e-12 7.17e-12 7.33e-12 7.51e-12 7.71e-12 7.91e-12 
12 00 12  09 02 08 1.21e-11 1.2e-11 1.2e-11 1.19e-11 1.18e-11 1.16e-11 1.14e-11 1.12e-11 1.11e-11 1.1e-11 1.08e-11 1.07e-11 1.06e-11 1.05e-11 1.05e-11 1.06e-11 1.07e-11 1.07e-11 1.09e-11 1.11e-11 1.12e-11 
12 00 12  09 02 07 1.16e-11 1.15e-11 1.15e-11 1.16e-11 1.15e-11 1.14e-11 1.13e-11 1.12e-11 1.11e-11 1.1e-11 1.09e-11 1.08e-11 1.07e-11 1.07e-11 1.06e-11 1.06e-11 1.06e-11 1.05e-11 1.06e-11 1.06e-11 1.05e-11 
12 00 12  10 02 09 1.12e-11 1.13e-11 1.15e-11 1.16e-11 1.16e-11 1.15e-11 1.14e-11 1.14e-11 1.13e-11 1.13e-11 1.13e-11 1.13e-11 1.14e-11 1.15e-11 1.16e-11 1.18e-11 1.19e-11 1.22e-11 1.23e-11 1.25e-11 1.27e-11 
12 00 12  10 02 08 1.26e-11 1.26e-11 1.27e-11 1.27e-11 1.26e-11 1.25e-11 1.24e-11 1.23e-11 1.22e-11 1.21e-11 1.21e-11 1.19e-11 1.18e-11 1.18e-11 1.18e-11 1.19e-11 1.19e-11 1.21e-11 1.21e-11 1.22e-11 1.23e-11 
12 00 12  11 02 10 4.33e-12 5.14e-12 5.54e-12 5.89e-12 6.01e-12 6.08e-12 6.13e-12 6.18e-12 6.23e-12 6.3e-12 6.38e-12 6.56e-12 6.79e-12 7.05e-12 7.34e-12 7.66e-12 7.99e-12 8.34e-12 8.69e-12 9.03e-12 9.49e-12 
12 00 12  11 02 09 2.04e-11 2.37e-11 2.51e-11 2.59e-11 2.56e-11 2.52e-11 2.47e-11 2.43e-11 2.39e-11 2.35e-11 2.32e-11 2.28e-11 2.26e-11 2.24e-11 2.23e-11 2.22e-11 2.23e-11 2.22e-11 2.23e-11 2.23e-11 2.24e-11 
12 00 12  04 04 01 1.2e-13 1.3e-13 1.4e-13 1.8e-13 2.2e-13 2.7e-13 3.2e-13 3.7e-13 4.2e-13 4.7e-13 5.1e-13 6.1e-13 7.1e-13 8e-13 9e-13 1e-12 1.11e-12 1.21e-12 1.32e-12 1.43e-12 1.55e-12 
12 00 12  04 04 00 1.4e-13 1.6e-13 1.8e-13 2.3e-13 2.9e-13 3.5e-13 4.1e-13 4.6e-13 5.2e-13 5.7e-13 6.2e-13 7.3e-13 8.3e-13 9.3e-13 1.02e-12 1.12e-12 1.21e-12 1.3e-12 1.4e-12 1.49e-12 1.58e-12 
12 00 12  05 04 02 2e-13 2.1e-13 2.2e-13 2.7e-13 3.3e-13 4.1e-13 4.8e-13 5.6e-13 6.4e-13 7.1e-13 7.9e-13 9.3e-13 1.07e-12 1.21e-12 1.34e-12 1.48e-12 1.62e-12 1.76e-12 1.9e-12 2.05e-12 2.2e-12 
12 00 12  05 04 01 2e-13 2e-13 2.2e-13 2.5e-13 3e-13 3.5e-13 4e-13 4.6e-13 5.1e-13 5.7e-13 6.3e-13 7.5e-13 8.7e-13 1e-12 1.14e-12 1.28e-12 1.43e-12 1.58e-12 1.74e-12 1.91e-12 2.09e-12 
12 00 12  06 04 03 4.4e-13 4.9e-13 5.4e-13 6.5e-13 7.6e-13 8.9e-13 1.01e-12 1.13e-12 1.24e-12 1.36e-12 1.46e-12 1.68e-12 1.88e-12 2.07e-12 2.26e-12 2.43e-12 2.6e-12 2.76e-12 2.9e-12 3.05e-12 3.18e-12 
12 00 12  06 04 02 4.4e-13 5e-13 5.6e-13 6.9e-13 8.2e-13 9.4e-13 1.06e-12 1.18e-12 1.29e-12 1.4e-12 1.5e-12 1.71e-12 1.91e-12 2.1e-12 2.28e-12 2.45e-12 2.6e-12 2.75e-12 2.89e-12 3.02e-12 3.14e-12 
12 00 12  07 04 04 2.6e-13 4.4e-13 5.9e-13 8.7e-13 1.11e-12 1.32e-12 1.52e-12 1.7e-12 1.86e-12 2.02e-12 2.17e-12 2.45e-12 2.71e-12 2.95e-12 3.18e-12 3.39e-12 3.6e-12 3.8e-12 3.99e-12 4.17e-12 4.35e-12 
12 00 12  07 04 03 2.5e-13 4.1e-13 5.5e-13 7.7e-13 9.4e-13 1.1e-12 1.25e-12 1.38e-12 1.51e-12 1.64e-12 1.76e-12 2e-12 2.23e-12 2.45e-12 2.66e-12 2.86e-12 3.05e-12 3.24e-12 3.41e-12 3.58e-12 3.74e-12 
02 02 01  00 00 00 0 0 0 0 0 0 0 0 0 0 0 0 0 0 0 0 0 0 0 0 0 
02 02 01  01 00 01 7.39e-12 7.58e-12 7.85e-12 8.52e-12 9.25e-12 9.99e-12 1.07e-11 1.14e-11 1.2e-11 1.26e-11 1.32e-11 1.43e-11 1.52e-11 1.61e-11 1.68e-11 1.75e-11 1.82e-11 1.88e-11 1.94e-11 1.99e-11 2.04e-11 
02 02 01  02 00 02 1.01e-11 1e-11 1e-11 1.02e-11 1.04e-11 1.06e-11 1.07e-11 1.09e-11 1.1e-11 1.12e-11 1.13e-11 1.15e-11 1.17e-11 1.19e-11 1.21e-11 1.23e-11 1.24e-11 1.25e-11 1.27e-11 1.28e-11 1.29e-11 
02 02 01  03 00 03 1.06e-11 1.07e-11 1.08e-11 1.1e-11 1.13e-11 1.15e-11 1.17e-11 1.18e-11 1.2e-11 1.22e-11 1.24e-11 1.27e-11 1.31e-11 1.34e-11 1.38e-11 1.41e-11 1.45e-11 1.48e-11 1.51e-11 1.55e-11 1.58e-11 
02 02 01  04 00 04 2.17e-11 2.14e-11 2.13e-11 2.13e-11 2.13e-11 2.13e-11 2.12e-11 2.11e-11 2.11e-11 2.1e-11 2.09e-11 2.07e-11 2.05e-11 2.04e-11 2.03e-11 2.03e-11 2.02e-11 2.02e-11 2.02e-11 2.02e-11 2.03e-11 
02 02 01  05 00 05 1.33e-11 1.23e-11 1.16e-11 1.08e-11 1.03e-11 1.01e-11 9.98e-12 9.9e-12 9.85e-12 9.82e-12 9.81e-12 9.82e-12 9.87e-12 9.94e-12 1e-11 1.02e-11 1.03e-11 1.04e-11 1.06e-11 1.07e-11 1.09e-11 
02 02 01  06 00 06 2.76e-12 4.7e-12 6.19e-12 8.22e-12 9.54e-12 1.05e-11 1.12e-11 1.18e-11 1.23e-11 1.27e-11 1.31e-11 1.37e-11 1.41e-11 1.45e-11 1.48e-11 1.5e-11 1.52e-11 1.54e-11 1.55e-11 1.57e-11 1.57e-11 
02 02 01  07 00 07 1e-13 3.5e-13 6.5e-13 1.18e-12 1.6e-12 1.95e-12 2.26e-12 2.54e-12 2.79e-12 3.02e-12 3.24e-12 3.63e-12 3.97e-12 4.27e-12 4.53e-12 4.77e-12 4.99e-12 5.19e-12 5.38e-12 5.55e-12 5.71e-12 
02 02 01  08 00 08 1e-14 6e-14 1.7e-13 5.6e-13 1.03e-12 1.5e-12 1.96e-12 2.41e-12 2.82e-12 3.22e-12 3.6e-12 4.28e-12 4.89e-12 5.43e-12 5.89e-12 6.3e-12 6.66e-12 6.97e-12 7.24e-12 7.47e-12 7.67e-12 
02 02 01  09 00 09 0 0 2e-14 1.1e-13 2.6e-13 4.3e-13 6.1e-13 8e-13 9.7e-13 1.14e-12 1.3e-12 1.61e-12 1.89e-12 2.15e-12 2.4e-12 2.64e-12 2.88e-12 3.11e-12 3.34e-12 3.56e-12 3.79e-12 
02 02 01  10 00 10 0 0 0 2e-14 7e-14 1.4e-13 2.2e-13 3.2e-13 4.2e-13 5.3e-13 6.5e-13 9e-13 1.16e-12 1.43e-12 1.7e-12 1.97e-12 2.22e-12 2.47e-12 2.71e-12 2.94e-12 3.16e-12 
02 02 01  11 00 11 0 0 0 1e-14 3e-14 7e-14 1.3e-13 2e-13 2.8e-13 3.7e-13 4.6e-13 6.5e-13 8.5e-13 1.06e-12 1.28e-12 1.49e-12 1.71e-12 1.92e-12 2.14e-12 2.36e-12 2.57e-12 
02 02 01  12 00 12 0 0 0 0 0 1e-14 2e-14 4e-14 6e-14 8e-14 1e-13 1.6e-13 2.2e-13 2.9e-13 3.6e-13 4.4e-13 5.2e-13 6e-13 6.8e-13 7.6e-13 8.4e-13 
02 02 01  02 02 01 0 0 0 0 0 0 0 0 0 0 0 0 0 0 0 0 0 0 0 0 0 
02 02 01  02 02 00 7.66e-11 7.51e-11 7.3e-11 6.97e-11 6.74e-11 6.57e-11 6.45e-11 6.35e-11 6.28e-11 6.22e-11 6.17e-11 6.09e-11 6.03e-11 5.99e-11 5.95e-11 5.93e-11 5.9e-11 5.88e-11 5.86e-11 5.84e-11 5.83e-11 
02 02 01  03 02 02 1.61e-11 2.3e-11 2.75e-11 3.26e-11 3.52e-11 3.68e-11 3.79e-11 3.86e-11 3.92e-11 3.96e-11 4e-11 4.04e-11 4.09e-11 4.12e-11 4.15e-11 4.17e-11 4.19e-11 4.21e-11 4.22e-11 4.23e-11 4.24e-11 
02 02 01  03 02 01 5.74e-12 9.19e-12 1.2e-11 1.61e-11 1.9e-11 2.12e-11 2.3e-11 2.46e-11 2.59e-11 2.72e-11 2.82e-11 3e-11 3.16e-11 3.28e-11 3.39e-11 3.49e-11 3.58e-11 3.66e-11 3.74e-11 3.8e-11 3.87e-11 
02 02 01  04 02 03 1.65e-12 3.56e-12 5.21e-12 7.86e-12 9.96e-12 1.17e-11 1.32e-11 1.45e-11 1.56e-11 1.67e-11 1.76e-11 1.94e-11 2.07e-11 2.19e-11 2.31e-11 2.41e-11 2.5e-11 2.57e-11 2.64e-11 2.71e-11 2.77e-11 
02 02 01  04 02 02 7.1e-13 1.61e-12 2.44e-12 3.74e-12 4.71e-12 5.5e-12 6.18e-12 6.76e-12 7.31e-12 7.78e-12 8.2e-12 8.94e-12 9.57e-12 1.01e-11 1.05e-11 1.09e-11 1.13e-11 1.16e-11 1.18e-11 1.21e-11 1.23e-11 
02 02 01  05 02 04 4.1e-13 1.64e-12 3.3e-12 6.63e-12 9.49e-12 1.18e-11 1.37e-11 1.52e-11 1.65e-11 1.77e-11 1.87e-11 2.02e-11 2.14e-11 2.23e-11 2.3e-11 2.37e-11 2.42e-11 2.48e-11 2.51e-11 2.54e-11 2.56e-11 
02 02 01  05 02 03 9e-14 3.7e-13 7.2e-13 1.45e-12 2.13e-12 2.77e-12 3.37e-12 3.95e-12 4.51e-12 5.05e-12 5.57e-12 6.58e-12 7.53e-12 8.43e-12 9.29e-12 1.01e-11 1.08e-11 1.16e-11 1.22e-11 1.28e-11 1.34e-11 
02 02 01  06 02 05 3e-14 2.5e-13 7.1e-13 1.99e-12 3.37e-12 4.64e-12 5.77e-12 6.76e-12 7.64e-12 8.43e-12 9.13e-12 1.04e-11 1.15e-11 1.24e-11 1.33e-11 1.41e-11 1.48e-11 1.55e-11 1.62e-11 1.67e-11 1.73e-11 
02 02 01  06 02 04 2e-14 1.7e-13 4.8e-13 1.31e-12 2.18e-12 2.98e-12 3.7e-12 4.35e-12 4.94e-12 5.48e-12 5.99e-12 6.9e-12 7.68e-12 8.37e-12 8.98e-12 9.51e-12 9.98e-12 1.04e-11 1.08e-11 1.11e-11 1.13e-11 
02 02 01  07 02 06 0 5e-14 2.3e-13 1.03e-12 2.23e-12 3.6e-12 4.98e-12 6.32e-12 7.58e-12 8.75e-12 9.84e-12 1.18e-11 1.35e-11 1.49e-11 1.62e-11 1.73e-11 1.83e-11 1.92e-11 1.99e-11 2.06e-11 2.12e-11 
02 02 01  07 02 05 0 1e-14 6e-14 2.5e-13 5.5e-13 8.9e-13 1.24e-12 1.58e-12 1.9e-12 2.22e-12 2.52e-12 3.07e-12 3.6e-12 4.08e-12 4.56e-12 5.02e-12 5.47e-12 5.9e-12 6.32e-12 6.74e-12 7.15e-12 
02 02 01  08 02 07 0 0 2e-14 1.5e-13 4.2e-13 7.7e-13 1.16e-12 1.56e-12 1.95e-12 2.33e-12 2.68e-12 3.33e-12 3.88e-12 4.37e-12 4.78e-12 5.18e-12 5.5e-12 5.8e-12 6.09e-12 6.35e-12 6.6e-12 
02 02 01  08 02 06 0 0 1e-14 1e-13 2.8e-13 5.1e-13 7.9e-13 1.07e-12 1.37e-12 1.66e-12 1.95e-12 2.52e-12 3.09e-12 3.62e-12 4.16e-12 4.64e-12 5.11e-12 5.57e-12 6e-12 6.42e-12 6.81e-12 
02 02 01  09 02 08 0 0 0 6e-14 2.2e-13 4.8e-13 8.3e-13 1.23e-12 1.68e-12 2.16e-12 2.64e-12 3.61e-12 4.57e-12 5.5e-12 6.39e-12 7.26e-12 8.13e-12 8.99e-12 9.83e-12 1.07e-11 1.15e-11 
02 02 01  09 02 07 0 0 0 3e-14 1.1e-13 2.5e-13 4.2e-13 6.3e-13 8.5e-13 1.08e-12 1.31e-12 1.77e-12 2.2e-12 2.63e-12 3.03e-12 3.43e-12 3.8e-12 4.19e-12 4.56e-12 4.93e-12 5.29e-12 
02 02 01  10 02 09 0 0 0 1e-14 3e-14 7e-14 1.4e-13 2.2e-13 3.2e-13 4.2e-13 5.4e-13 8e-13 1.07e-12 1.34e-12 1.62e-12 1.9e-12 2.15e-12 2.42e-12 2.65e-12 2.9e-12 3.12e-12 
02 02 01  10 02 08 0 0 0 1e-14 3e-14 7e-14 1.4e-13 2.2e-13 3.2e-13 4.2e-13 5.3e-13 7.6e-13 9.9e-13 1.22e-12 1.45e-12 1.68e-12 1.89e-12 2.13e-12 2.34e-12 2.57e-12 2.8e-12 
02 02 01  11 02 10 0 0 0 0 1e-14 3e-14 7e-14 1.2e-13 1.8e-13 2.6e-13 3.5e-13 5.7e-13 8e-13 1.06e-12 1.33e-12 1.61e-12 1.88e-12 2.15e-12 2.41e-12 2.68e-12 2.92e-12 
02 02 01  11 02 09 0 0 0 0 1e-14 4e-14 9e-14 1.6e-13 2.6e-13 3.7e-13 5e-13 7.8e-13 1.1e-12 1.44e-12 1.79e-12 2.14e-12 2.49e-12 2.83e-12 3.18e-12 3.52e-12 3.84e-12 
02 02 01  04 04 01 0 0 0 1e-14 5e-14 1.2e-13 2.2e-13 3.6e-13 5.2e-13 6.9e-13 8.8e-13 1.29e-12 1.72e-12 2.15e-12 2.59e-12 3.01e-12 3.43e-12 3.84e-12 4.25e-12 4.65e-12 5.04e-12 
02 02 01  04 04 00 0 0 0 0 2e-14 4e-14 8e-14 1.2e-13 1.7e-13 2.2e-13 2.7e-13 3.8e-13 5e-13 6.2e-13 7.4e-13 8.6e-13 9.8e-13 1.11e-12 1.24e-12 1.36e-12 1.49e-12 
02 02 01  05 04 02 0 0 0 1e-14 3e-14 8e-14 1.5e-13 2.3e-13 3.2e-13 4.1e-13 5.1e-13 7.2e-13 9.3e-13 1.15e-12 1.37e-12 1.58e-12 1.8e-12 2.02e-12 2.23e-12 2.45e-12 2.65e-12 
02 02 01  05 04 01 0 0 0 1e-14 2e-14 6e-14 1.1e-13 1.7e-13 2.4e-13 3.1e-13 3.9e-13 5.6e-13 7.4e-13 9.3e-13 1.14e-12 1.36e-12 1.6e-12 1.85e-12 2.12e-12 2.4e-12 2.7e-12 
02 02 01  06 04 03 0 0 0 0 3e-14 7e-14 1.5e-13 2.4e-13 3.6e-13 4.9e-13 6.3e-13 9.3e-13 1.25e-12 1.59e-12 1.93e-12 2.28e-12 2.62e-12 2.96e-12 3.31e-12 3.65e-12 3.99e-12 
02 02 01  06 04 02 0 0 0 0 1e-14 3e-14 6e-14 1.1e-13 1.6e-13 2.1e-13 2.7e-13 4e-13 5.5e-13 7e-13 8.6e-13 1.03e-12 1.2e-12 1.38e-12 1.55e-12 1.73e-12 1.91e-12 
02 02 01  07 04 04 0 0 0 0 1e-14 5e-14 1.1e-13 1.9e-13 2.9e-13 4e-13 5.3e-13 8.1e-13 1.1e-12 1.4e-12 1.7e-12 1.99e-12 2.28e-12 2.56e-12 2.83e-12 3.09e-12 3.35e-12 
02 02 01  07 04 03 0 0 0 0 1e-14 2e-14 4e-14 7e-14 1.1e-13 1.6e-13 2.2e-13 3.4e-13 4.8e-13 6.3e-13 7.9e-13 9.6e-13 1.12e-12 1.31e-12 1.48e-12 1.66e-12 1.85e-12 
02 02 00  00 00 00 3.33e-12 3.44e-12 3.61e-12 4e-12 4.41e-12 4.83e-12 5.22e-12 5.59e-12 5.94e-12 6.27e-12 6.57e-12 7.13e-12 7.63e-12 8.08e-12 8.47e-12 8.83e-12 9.16e-12 9.45e-12 9.71e-12 9.95e-12 1.02e-11 
02 02 00  01 00 01 5.59e-12 5e-12 4.65e-12 4.29e-12 4.13e-12 4.06e-12 4.03e-12 4.03e-12 4.05e-12 4.07e-12 4.09e-12 4.15e-12 4.21e-12 4.27e-12 4.33e-12 4.39e-12 4.45e-12 4.51e-12 4.57e-12 4.62e-12 4.67e-12 
02 02 00  02 00 02 1.12e-11 1.07e-11 1.04e-11 1.03e-11 1.04e-11 1.07e-11 1.1e-11 1.14e-11 1.17e-11 1.21e-11 1.24e-11 1.31e-11 1.38e-11 1.44e-11 1.49e-11 1.55e-11 1.6e-11 1.65e-11 1.69e-11 1.74e-11 1.78e-11 
02 02 00  03 00 03 1.88e-11 1.82e-11 1.79e-11 1.75e-11 1.73e-11 1.73e-11 1.72e-11 1.72e-11 1.72e-11 1.72e-11 1.72e-11 1.73e-11 1.73e-11 1.73e-11 1.74e-11 1.75e-11 1.76e-11 1.77e-11 1.78e-11 1.79e-11 1.8e-11 
02 02 00  04 00 04 1.44e-11 1.38e-11 1.34e-11 1.31e-11 1.29e-11 1.29e-11 1.29e-11 1.29e-11 1.29e-11 1.29e-11 1.29e-11 1.3e-11 1.31e-11 1.33e-11 1.34e-11 1.36e-11 1.38e-11 1.4e-11 1.42e-11 1.44e-11 1.46e-11 
02 02 00  05 00 05 1.92e-11 1.93e-11 1.94e-11 1.96e-11 1.98e-11 2e-11 2.01e-11 2.01e-11 2.01e-11 2.01e-11 2.01e-11 2.01e-11 2e-11 1.99e-11 1.99e-11 1.99e-11 1.98e-11 1.98e-11 1.98e-11 1.98e-11 1.98e-11 
02 02 00  06 00 06 1.2e-12 1.94e-12 2.47e-12 3.18e-12 3.66e-12 4.04e-12 4.36e-12 4.63e-12 4.87e-12 5.08e-12 5.28e-12 5.62e-12 5.91e-12 6.18e-12 6.42e-12 6.66e-12 6.88e-12 7.08e-12 7.29e-12 7.48e-12 7.66e-12 
02 02 00  07 00 07 2e-13 7.2e-13 1.34e-12 2.5e-12 3.45e-12 4.25e-12 4.95e-12 5.56e-12 6.12e-12 6.62e-12 7.07e-12 7.86e-12 8.52e-12 9.08e-12 9.54e-12 9.94e-12 1.03e-11 1.06e-11 1.08e-11 1.1e-11 1.12e-11 
02 02 00  08 00 08 0 3e-14 1.1e-13 3.4e-13 6.2e-13 8.8e-13 1.14e-12 1.38e-12 1.61e-12 1.83e-12 2.03e-12 2.42e-12 2.77e-12 3.1e-12 3.4e-12 3.68e-12 3.94e-12 4.19e-12 4.43e-12 4.66e-12 4.89e-12 
02 02 00  09 00 09 0 1e-14 3e-14 1.4e-13 3.2e-13 5.3e-13 7.6e-13 9.8e-13 1.2e-12 1.42e-12 1.63e-12 2.03e-12 2.4e-12 2.75e-12 3.07e-12 3.36e-12 3.63e-12 3.87e-12 4.1e-12 4.31e-12 4.49e-12 
02 02 00  10 00 10 0 0 0 3e-14 1e-13 1.9e-13 3.1e-13 4.5e-13 5.9e-13 7.3e-13 8.8e-13 1.17e-12 1.48e-12 1.78e-12 2.08e-12 2.37e-12 2.66e-12 2.94e-12 3.21e-12 3.47e-12 3.72e-12 
02 02 00  11 00 11 0 0 0 0 1e-14 3e-14 6e-14 9e-14 1.4e-13 1.9e-13 2.4e-13 3.7e-13 5.2e-13 6.8e-13 8.5e-13 1.03e-12 1.21e-12 1.4e-12 1.58e-12 1.76e-12 1.93e-12 
02 02 00  12 00 12 0 0 0 0 1e-14 2e-14 5e-14 8e-14 1.3e-13 1.7e-13 2.3e-13 3.4e-13 4.6e-13 5.9e-13 7.3e-13 8.6e-13 1.01e-12 1.15e-12 1.3e-12 1.45e-12 1.61e-12 
02 02 00  02 02 01 7.66e-11 7.51e-11 7.3e-11 6.97e-11 6.74e-11 6.57e-11 6.45e-11 6.35e-11 6.28e-11 6.22e-11 6.17e-11 6.09e-11 6.03e-11 5.99e-11 5.95e-11 5.93e-11 5.9e-11 5.88e-11 5.86e-11 5.84e-11 5.83e-11 
02 02 00  02 02 00 0 0 0 0 0 0 0 0 0 0 0 0 0 0 0 0 0 0 0 0 0 
02 02 00  03 02 02 8.24e-12 1.26e-11 1.57e-11 1.99e-11 2.27e-11 2.46e-11 2.62e-11 2.75e-11 2.86e-11 2.95e-11 3.04e-11 3.19e-11 3.31e-11 3.42e-11 3.51e-11 3.59e-11 3.66e-11 3.73e-11 3.78e-11 3.84e-11 3.89e-11 
02 02 00  03 02 01 1.44e-11 2.07e-11 2.46e-11 2.91e-11 3.15e-11 3.29e-11 3.4e-11 3.46e-11 3.52e-11 3.56e-11 3.59e-11 3.66e-11 3.69e-11 3.72e-11 3.74e-11 3.76e-11 3.78e-11 3.78e-11 3.79e-11 3.8e-11 3.81e-11 
02 02 00  04 02 03 1.68e-12 3.74e-12 5.62e-12 8.6e-12 1.07e-11 1.24e-11 1.38e-11 1.47e-11 1.56e-11 1.65e-11 1.7e-11 1.82e-11 1.9e-11 1.98e-11 2.04e-11 2.1e-11 2.14e-11 2.18e-11 2.21e-11 2.24e-11 2.26e-11 
02 02 00  04 02 02 7.2e-13 1.66e-12 2.61e-12 4.4e-12 6.06e-12 7.62e-12 9.06e-12 1.04e-11 1.17e-11 1.28e-11 1.39e-11 1.59e-11 1.77e-11 1.93e-11 2.06e-11 2.2e-11 2.3e-11 2.41e-11 2.51e-11 2.59e-11 2.67e-11 
02 02 00  05 02 04 2.6e-13 1.05e-12 2.11e-12 4.25e-12 6.08e-12 7.58e-12 8.82e-12 9.87e-12 1.08e-11 1.16e-11 1.23e-11 1.36e-11 1.47e-11 1.57e-11 1.65e-11 1.73e-11 1.81e-11 1.87e-11 1.93e-11 1.99e-11 2.03e-11 
02 02 00  05 02 03 1.1e-13 4.8e-13 1.01e-12 2.21e-12 3.34e-12 4.33e-12 5.21e-12 5.98e-12 6.67e-12 7.28e-12 7.83e-12 8.78e-12 9.57e-12 1.02e-11 1.08e-11 1.13e-11 1.17e-11 1.21e-11 1.25e-11 1.28e-11 1.31e-11 
02 02 00  06 02 05 5e-14 3.7e-13 1.06e-12 3.07e-12 5.32e-12 7.46e-12 9.3e-12 1.1e-11 1.24e-11 1.37e-11 1.48e-11 1.66e-11 1.81e-11 1.93e-11 2.02e-11 2.11e-11 2.17e-11 2.22e-11 2.27e-11 2.3e-11 2.34e-11 
02 02 00  06 02 04 0 4e-14 1.2e-13 3.8e-13 7.2e-13 1.09e-12 1.47e-12 1.85e-12 2.23e-12 2.61e-12 2.98e-12 3.69e-12 4.38e-12 5.05e-12 5.7e-12 6.32e-12 6.92e-12 7.5e-12 8.06e-12 8.6e-12 9.13e-12 
02 02 00  07 02 06 0 4e-14 1.5e-13 6.5e-13 1.37e-12 2.15e-12 2.92e-12 3.63e-12 4.29e-12 4.89e-12 5.42e-12 6.35e-12 7.12e-12 7.77e-12 8.33e-12 8.84e-12 9.28e-12 9.69e-12 1.01e-11 1.04e-11 1.08e-11 
02 02 00  07 02 05 0 2e-14 9e-14 3.6e-13 7.4e-13 1.16e-12 1.58e-12 2e-12 2.4e-12 2.8e-12 3.17e-12 3.9e-12 4.57e-12 5.2e-12 5.78e-12 6.3e-12 6.8e-12 7.25e-12 7.65e-12 8.04e-12 8.39e-12 
02 02 00  08 02 07 0 0 4e-14 2.6e-13 7.4e-13 1.39e-12 2.15e-12 2.95e-12 3.76e-12 4.56e-12 5.34e-12 6.8e-12 8.13e-12 9.34e-12 1.05e-11 1.15e-11 1.24e-11 1.33e-11 1.41e-11 1.49e-11 1.56e-11 
02 02 00  08 02 06 0 0 1e-14 1e-13 2.7e-13 5e-13 7.6e-13 1.03e-12 1.29e-12 1.55e-12 1.79e-12 2.25e-12 2.67e-12 3.06e-12 3.42e-12 3.76e-12 4.09e-12 4.4e-12 4.69e-12 4.98e-12 5.28e-12 
02 02 00  09 02 08 0 0 0 3e-14 1.2e-13 2.6e-13 4.3e-13 6.4e-13 8.6e-13 1.08e-12 1.31e-12 1.76e-12 2.17e-12 2.57e-12 2.94e-12 3.27e-12 3.57e-12 3.83e-12 4.08e-12 4.3e-12 4.5e-12 
02 02 00  09 02 07 0 0 0 3e-14 1.1e-13 2.3e-13 3.8e-13 5.6e-13 7.4e-13 9.2e-13 1.11e-12 1.49e-12 1.85e-12 2.2e-12 2.54e-12 2.85e-12 3.16e-12 3.46e-12 3.76e-12 4.05e-12 4.33e-12 
02 02 00  10 02 09 0 0 0 1e-14 5e-14 1.4e-13 2.7e-13 4.4e-13 6.5e-13 8.9e-13 1.15e-12 1.73e-12 2.34e-12 2.97e-12 3.6e-12 4.22e-12 4.84e-12 5.44e-12 6.03e-12 6.63e-12 7.22e-12 
02 02 00  10 02 08 0 0 0 1e-14 4e-14 1.1e-13 2.2e-13 3.5e-13 5e-13 6.7e-13 8.5e-13 1.23e-12 1.62e-12 2e-12 2.37e-12 2.74e-12 3.13e-12 3.49e-12 3.86e-12 4.24e-12 4.61e-12 
02 02 00  11 02 10 0 0 0 0 1e-14 2e-14 4e-14 6e-14 9e-14 1.3e-13 1.8e-13 2.8e-13 4.1e-13 5.6e-13 7.2e-13 8.9e-13 1.07e-12 1.25e-12 1.44e-12 1.62e-12 1.8e-12 
02 02 00  11 02 09 0 0 0 0 1e-14 2e-14 5e-14 9e-14 1.4e-13 2.1e-13 2.8e-13 4.4e-13 6.3e-13 8.3e-13 1.05e-12 1.28e-12 1.53e-12 1.78e-12 2.05e-12 2.33e-12 2.63e-12 
02 02 00  04 04 01 0 0 0 0 2e-14 4e-14 8e-14 1.2e-13 1.7e-13 2.2e-13 2.8e-13 3.9e-13 5.2e-13 6.5e-13 7.8e-13 9.1e-13 1.05e-12 1.19e-12 1.33e-12 1.47e-12 1.62e-12 
02 02 00  04 04 00 0 0 0 1e-14 5e-14 1.1e-13 2.2e-13 3.6e-13 5.2e-13 7.1e-13 9.1e-13 1.34e-12 1.79e-12 2.25e-12 2.71e-12 3.16e-12 3.59e-12 4.01e-12 4.42e-12 4.81e-12 5.19e-12 
02 02 00  05 04 02 0 0 0 1e-14 3e-14 7e-14 1.3e-13 2e-13 2.8e-13 3.7e-13 4.6e-13 6.7e-13 8.9e-13 1.11e-12 1.34e-12 1.57e-12 1.79e-12 2.02e-12 2.24e-12 2.47e-12 2.7e-12 
02 02 00  05 04 01 0 0 0 1e-14 3e-14 7e-14 1.4e-13 2.1e-13 3e-13 3.9e-13 4.9e-13 7e-13 9.1e-13 1.14e-12 1.37e-12 1.61e-12 1.85e-12 2.08e-12 2.32e-12 2.55e-12 2.78e-12 
02 02 00  06 04 03 0 0 0 0 2e-14 5e-14 9e-14 1.4e-13 2.1e-13 2.8e-13 3.6e-13 5.2e-13 7e-13 8.8e-13 1.06e-12 1.25e-12 1.44e-12 1.63e-12 1.83e-12 2.01e-12 2.2e-12 
02 02 00  06 04 02 0 0 0 0 2e-14 5e-14 1.1e-13 1.8e-13 2.6e-13 3.6e-13 4.6e-13 6.9e-13 9.5e-13 1.22e-12 1.52e-12 1.84e-12 2.18e-12 2.55e-12 2.94e-12 3.36e-12 3.8e-12 
02 02 00  07 04 04 0 0 0 0 2e-14 5e-14 1.2e-13 2e-13 3.1e-13 4.4e-13 5.8e-13 8.8e-13 1.2e-12 1.52e-12 1.82e-12 2.12e-12 2.41e-12 2.7e-12 2.96e-12 3.22e-12 3.47e-12 
02 02 00  07 04 03 0 0 0 0 1e-14 2e-14 5e-14 9e-14 1.4e-13 2e-13 2.7e-13 4.2e-13 5.9e-13 7.8e-13 9.7e-13 1.16e-12 1.36e-12 1.55e-12 1.74e-12 1.92e-12 2.11e-12 
03 02 02  00 00 00 0 0 0 0 0 0 0 0 0 0 0 0 0 0 0 0 0 0 0 0 0 
03 02 02  01 00 01 2.05e-12 2.15e-12 2.23e-12 2.35e-12 2.46e-12 2.55e-12 2.65e-12 2.73e-12 2.81e-12 2.89e-12 2.97e-12 3.11e-12 3.23e-12 3.35e-12 3.46e-12 3.55e-12 3.64e-12 3.73e-12 3.81e-12 3.88e-12 3.94e-12 
03 02 02  02 00 02 9.56e-12 9.74e-12 1e-11 1.07e-11 1.14e-11 1.21e-11 1.28e-11 1.35e-11 1.41e-11 1.47e-11 1.53e-11 1.64e-11 1.74e-11 1.83e-11 1.91e-11 1.99e-11 2.06e-11 2.12e-11 2.18e-11 2.24e-11 2.29e-11 
03 02 02  03 00 03 1.28e-11 1.25e-11 1.25e-11 1.26e-11 1.28e-11 1.3e-11 1.31e-11 1.32e-11 1.32e-11 1.33e-11 1.33e-11 1.34e-11 1.35e-11 1.35e-11 1.36e-11 1.37e-11 1.37e-11 1.38e-11 1.39e-11 1.39e-11 1.4e-11 
03 02 02  04 00 04 8.61e-12 8.32e-12 8.17e-12 8.1e-12 8.14e-12 8.24e-12 8.36e-12 8.5e-12 8.64e-12 8.79e-12 8.94e-12 9.25e-12 9.56e-12 9.87e-12 1.02e-11 1.04e-11 1.07e-11 1.1e-11 1.12e-11 1.15e-11 1.17e-11 
03 02 02  05 00 05 1.77e-11 1.76e-11 1.74e-11 1.72e-11 1.71e-11 1.71e-11 1.71e-11 1.71e-11 1.71e-11 1.72e-11 1.72e-11 1.72e-11 1.73e-11 1.73e-11 1.73e-11 1.73e-11 1.73e-11 1.73e-11 1.73e-11 1.73e-11 1.73e-11 
03 02 02  06 00 06 9.64e-12 1.12e-11 1.18e-11 1.21e-11 1.21e-11 1.2e-11 1.18e-11 1.17e-11 1.16e-11 1.15e-11 1.14e-11 1.13e-11 1.12e-11 1.11e-11 1.11e-11 1.11e-11 1.12e-11 1.12e-11 1.12e-11 1.13e-11 1.13e-11 
03 02 02  07 00 07 9.3e-13 2.48e-12 4.06e-12 6.62e-12 8.41e-12 9.68e-12 1.06e-11 1.13e-11 1.18e-11 1.22e-11 1.26e-11 1.31e-11 1.35e-11 1.38e-11 1.41e-11 1.43e-11 1.44e-11 1.46e-11 1.47e-11 1.48e-11 1.49e-11 
03 02 02  08 00 08 1e-14 6e-14 1.6e-13 4.9e-13 8.9e-13 1.31e-12 1.7e-12 2.07e-12 2.41e-12 2.71e-12 2.98e-12 3.47e-12 3.89e-12 4.26e-12 4.59e-12 4.9e-12 5.19e-12 5.46e-12 5.72e-12 5.96e-12 6.19e-12 
03 02 02  09 00 09 0 1e-14 4e-14 1.9e-13 4.4e-13 7.3e-13 1.05e-12 1.37e-12 1.69e-12 2e-12 2.29e-12 2.83e-12 3.32e-12 3.75e-12 4.14e-12 4.49e-12 4.8e-12 5.08e-12 5.34e-12 5.57e-12 5.77e-12 
03 02 02  10 00 10 0 0 1e-14 4e-14 1.2e-13 2.4e-13 3.7e-13 5.2e-13 6.8e-13 8.4e-13 1.01e-12 1.34e-12 1.66e-12 1.98e-12 2.28e-12 2.56e-12 2.84e-12 3.1e-12 3.35e-12 3.59e-12 3.82e-12 
03 02 02  11 00 11 0 0 0 1e-14 3e-14 6e-14 1.2e-13 1.8e-13 2.5e-13 3.4e-13 4.3e-13 6.3e-13 8.3e-13 1.05e-12 1.27e-12 1.48e-12 1.69e-12 1.91e-12 2.11e-12 2.32e-12 2.53e-12 
03 02 02  12 00 12 0 0 0 0 1e-14 3e-14 6e-14 1.1e-13 1.6e-13 2.2e-13 2.9e-13 4.5e-13 6.3e-13 8.3e-13 1.03e-12 1.23e-12 1.44e-12 1.64e-12 1.84e-12 2.03e-12 2.21e-12 
03 02 02  02 02 01 3.27e-11 3.31e-11 3.32e-11 3.3e-11 3.27e-11 3.24e-11 3.22e-11 3.2e-11 3.19e-11 3.18e-11 3.17e-11 3.15e-11 3.15e-11 3.14e-11 3.14e-11 3.14e-11 3.14e-11 3.14e-11 3.14e-11 3.14e-11 3.14e-11 
03 02 02  02 02 00 1.68e-11 1.81e-11 1.9e-11 2.02e-11 2.11e-11 2.17e-11 2.23e-11 2.28e-11 2.33e-11 2.37e-11 2.41e-11 2.49e-11 2.55e-11 2.61e-11 2.66e-11 2.7e-11 2.74e-11 2.78e-11 2.81e-11 2.85e-11 2.88e-11 
03 02 02  03 02 02 0 0 0 0 0 0 0 0 0 0 0 0 0 0 0 0 0 0 0 0 0 
03 02 02  03 02 01 3.47e-11 3.67e-11 3.74e-11 3.75e-11 3.73e-11 3.7e-11 3.67e-11 3.65e-11 3.63e-11 3.62e-11 3.61e-11 3.6e-11 3.59e-11 3.58e-11 3.57e-11 3.57e-11 3.57e-11 3.56e-11 3.56e-11 3.56e-11 3.55e-11 
03 02 02  04 02 03 1.16e-11 1.86e-11 2.36e-11 3.02e-11 3.43e-11 3.7e-11 3.9e-11 4.05e-11 4.17e-11 4.26e-11 4.34e-11 4.45e-11 4.54e-11 4.61e-11 4.65e-11 4.7e-11 4.74e-11 4.77e-11 4.8e-11 4.82e-11 4.85e-11 
03 02 02  04 02 02 2.7e-12 4.7e-12 6.46e-12 9.2e-12 1.12e-11 1.29e-11 1.44e-11 1.56e-11 1.66e-11 1.75e-11 1.83e-11 1.99e-11 2.12e-11 2.23e-11 2.33e-11 2.42e-11 2.51e-11 2.58e-11 2.66e-11 2.73e-11 2.8e-11 
03 02 02  05 02 04 3.1e-13 9.3e-13 1.68e-12 3.26e-12 4.83e-12 6.34e-12 7.8e-12 9.18e-12 1.05e-11 1.17e-11 1.28e-11 1.49e-11 1.67e-11 1.83e-11 1.98e-11 2.11e-11 2.23e-11 2.34e-11 2.44e-11 2.53e-11 2.62e-11 
03 02 02  05 02 03 8.1e-13 2.18e-12 3.52e-12 5.56e-12 6.99e-12 8.09e-12 9e-12 9.77e-12 1.05e-11 1.1e-11 1.16e-11 1.24e-11 1.33e-11 1.39e-11 1.44e-11 1.49e-11 1.53e-11 1.56e-11 1.59e-11 1.62e-11 1.64e-11 
03 02 02  06 02 05 9e-14 4.9e-13 1.15e-12 2.73e-12 4.27e-12 5.66e-12 6.91e-12 8.02e-12 9.02e-12 9.93e-12 1.07e-11 1.21e-11 1.34e-11 1.45e-11 1.53e-11 1.62e-11 1.68e-11 1.73e-11 1.79e-11 1.83e-11 1.89e-11 
03 02 02  06 02 04 5e-14 2.8e-13 6.7e-13 1.65e-12 2.65e-12 3.59e-12 4.44e-12 5.23e-12 5.94e-12 6.6e-12 7.21e-12 8.34e-12 9.35e-12 1.03e-11 1.12e-11 1.19e-11 1.27e-11 1.34e-11 1.4e-11 1.46e-11 1.51e-11 
03 02 02  07 02 06 1e-14 7e-14 2.5e-13 8.6e-13 1.6e-12 2.34e-12 3.03e-12 3.66e-12 4.24e-12 4.77e-12 5.28e-12 6.18e-12 6.99e-12 7.74e-12 8.42e-12 9.05e-12 9.64e-12 1.02e-11 1.07e-11 1.12e-11 1.16e-11 
03 02 02  07 02 05 1e-14 7e-14 2.5e-13 9.3e-13 1.78e-12 2.67e-12 3.51e-12 4.29e-12 5.01e-12 5.66e-12 6.28e-12 7.39e-12 8.35e-12 9.2e-12 9.95e-12 1.06e-11 1.12e-11 1.18e-11 1.23e-11 1.27e-11 1.32e-11 
03 02 02  08 02 07 0 1e-14 8e-14 4.7e-13 1.15e-12 1.98e-12 2.87e-12 3.75e-12 4.6e-12 5.4e-12 6.16e-12 7.53e-12 8.75e-12 9.83e-12 1.08e-11 1.16e-11 1.24e-11 1.32e-11 1.38e-11 1.44e-11 1.5e-11 
03 02 02  08 02 06 0 0 2e-14 1.1e-13 2.8e-13 5.2e-13 7.9e-13 1.08e-12 1.38e-12 1.67e-12 1.95e-12 2.49e-12 3e-12 3.47e-12 3.91e-12 4.31e-12 4.69e-12 5.07e-12 5.4e-12 5.75e-12 6.06e-12 
03 02 02  09 02 08 0 0 1e-14 7e-14 2.3e-13 4.6e-13 7.4e-13 1.04e-12 1.34e-12 1.64e-12 1.92e-12 2.46e-12 2.94e-12 3.38e-12 3.79e-12 4.16e-12 4.51e-12 4.86e-12 5.17e-12 5.47e-12 5.76e-12 
03 02 02  09 02 07 0 0 0 3e-14 1.1e-13 2.3e-13 3.9e-13 5.6e-13 7.5e-13 9.4e-13 1.14e-12 1.53e-12 1.91e-12 2.28e-12 2.64e-12 2.98e-12 3.3e-12 3.62e-12 3.92e-12 4.2e-12 4.5e-12 
03 02 02  10 02 09 0 0 0 2e-14 9e-14 2.3e-13 4.3e-13 6.7e-13 9.5e-13 1.24e-12 1.56e-12 2.2e-12 2.86e-12 3.52e-12 4.17e-12 4.82e-12 5.46e-12 6.09e-12 6.71e-12 7.32e-12 7.93e-12 
03 02 02  10 02 08 0 0 0 1e-14 5e-14 1.2e-13 2.2e-13 3.5e-13 4.8e-13 6.4e-13 8e-13 1.12e-12 1.47e-12 1.82e-12 2.19e-12 2.56e-12 2.95e-12 3.35e-12 3.76e-12 4.2e-12 4.65e-12 
03 02 02  11 02 10 0 0 0 0 1e-14 3e-14 7e-14 1.2e-13 1.9e-13 2.7e-13 3.6e-13 5.6e-13 7.8e-13 1.01e-12 1.25e-12 1.49e-12 1.72e-12 1.96e-12 2.2e-12 2.42e-12 2.66e-12 
03 02 02  11 02 09 0 0 0 0 1e-14 4e-14 8e-14 1.4e-13 2.2e-13 3e-13 3.9e-13 6e-13 8.2e-13 1.05e-12 1.3e-12 1.55e-12 1.82e-12 2.1e-12 2.38e-12 2.66e-12 2.94e-12 
03 02 02  04 04 01 0 0 0 1e-14 4e-14 1e-13 1.7e-13 2.5e-13 3.5e-13 4.5e-13 5.6e-13 7.9e-13 1.03e-12 1.27e-12 1.52e-12 1.78e-12 2.03e-12 2.29e-12 2.54e-12 2.79e-12 3.04e-12 
03 02 02  04 04 00 0 0 0 1e-14 4e-14 9e-14 1.6e-13 2.5e-13 3.5e-13 4.6e-13 5.8e-13 8.3e-13 1.09e-12 1.34e-12 1.6e-12 1.85e-12 2.1e-12 2.35e-12 2.59e-12 2.83e-12 3.07e-12 
03 02 02  05 04 02 0 0 0 1e-14 5e-14 1.3e-13 2.4e-13 3.7e-13 5.3e-13 7.1e-13 8.9e-13 1.28e-12 1.69e-12 2.09e-12 2.5e-12 2.89e-12 3.27e-12 3.66e-12 4.03e-12 4.4e-12 4.76e-12 
03 02 02  05 04 01 0 0 0 0 1e-14 3e-14 5e-14 8e-14 1.2e-13 1.6e-13 2e-13 2.9e-13 3.9e-13 4.9e-13 5.9e-13 7e-13 8e-13 9.1e-13 1.01e-12 1.11e-12 1.21e-12 
03 02 02  06 04 03 0 0 0 1e-14 3e-14 7e-14 1.4e-13 2.3e-13 3.2e-13 4.3e-13 5.4e-13 7.6e-13 1e-12 1.22e-12 1.45e-12 1.67e-12 1.89e-12 2.1e-12 2.32e-12 2.54e-12 2.75e-12 
03 02 02  06 04 02 0 0 0 0 2e-14 4e-14 8e-14 1.3e-13 1.8e-13 2.4e-13 3e-13 4.2e-13 5.5e-13 6.6e-13 7.8e-13 8.9e-13 9.9e-13 1.09e-12 1.17e-12 1.26e-12 1.33e-12 
03 02 02  07 04 04 0 0 0 0 2e-14 5e-14 1.1e-13 1.9e-13 3e-13 4.2e-13 5.6e-13 8.8e-13 1.22e-12 1.59e-12 1.97e-12 2.37e-12 2.77e-12 3.18e-12 3.6e-12 4.02e-12 4.46e-12 
03 02 02  07 04 03 0 0 0 0 1e-14 3e-14 6e-14 1.1e-13 1.6e-13 2.3e-13 2.9e-13 4.4e-13 6e-13 7.6e-13 9.2e-13 1.08e-12 1.23e-12 1.39e-12 1.53e-12 1.67e-12 1.81e-12 
03 02 01  00 00 00 2.26e-12 2.18e-12 2.15e-12 2.15e-12 2.2e-12 2.26e-12 2.33e-12 2.4e-12 2.47e-12 2.54e-12 2.61e-12 2.73e-12 2.85e-12 2.96e-12 3.06e-12 3.16e-12 3.25e-12 3.33e-12 3.41e-12 3.49e-12 3.57e-12 
03 02 01  01 00 01 5.55e-12 5.29e-12 5.22e-12 5.29e-12 5.51e-12 5.77e-12 6.05e-12 6.33e-12 6.61e-12 6.87e-12 7.13e-12 7.6e-12 8.04e-12 8.45e-12 8.82e-12 9.17e-12 9.51e-12 9.83e-12 1.01e-11 1.04e-11 1.07e-11 
03 02 01  02 00 02 8e-12 7.35e-12 6.94e-12 6.45e-12 6.15e-12 5.94e-12 5.78e-12 5.65e-12 5.55e-12 5.47e-12 5.4e-12 5.3e-12 5.24e-12 5.21e-12 5.2e-12 5.21e-12 5.23e-12 5.27e-12 5.31e-12 5.36e-12 5.42e-12 
03 02 01  03 00 03 1.14e-11 1.07e-11 1.04e-11 1.03e-11 1.04e-11 1.07e-11 1.1e-11 1.14e-11 1.18e-11 1.22e-11 1.26e-11 1.34e-11 1.41e-11 1.48e-11 1.54e-11 1.61e-11 1.66e-11 1.72e-11 1.77e-11 1.82e-11 1.86e-11 
03 02 01  04 00 04 1.58e-11 1.54e-11 1.53e-11 1.53e-11 1.54e-11 1.56e-11 1.57e-11 1.59e-11 1.61e-11 1.62e-11 1.63e-11 1.66e-11 1.68e-11 1.69e-11 1.71e-11 1.72e-11 1.73e-11 1.74e-11 1.75e-11 1.75e-11 1.76e-11 
03 02 01  05 00 05 1.36e-11 1.34e-11 1.32e-11 1.31e-11 1.3e-11 1.28e-11 1.28e-11 1.27e-11 1.26e-11 1.26e-11 1.26e-11 1.26e-11 1.27e-11 1.28e-11 1.29e-11 1.31e-11 1.32e-11 1.34e-11 1.36e-11 1.38e-11 1.39e-11 
03 02 01  06 00 06 1.42e-11 1.66e-11 1.78e-11 1.9e-11 1.95e-11 1.96e-11 1.97e-11 1.97e-11 1.97e-11 1.96e-11 1.96e-11 1.95e-11 1.94e-11 1.93e-11 1.93e-11 1.93e-11 1.92e-11 1.92e-11 1.92e-11 1.92e-11 1.92e-11 
03 02 01  07 00 07 4.4e-13 1.14e-12 1.81e-12 2.87e-12 3.63e-12 4.21e-12 4.66e-12 5.02e-12 5.31e-12 5.56e-12 5.77e-12 6.1e-12 6.37e-12 6.58e-12 6.77e-12 6.94e-12 7.1e-12 7.24e-12 7.38e-12 7.5e-12 7.62e-12 
03 02 01  08 00 08 3e-14 1.7e-13 4.6e-13 1.24e-12 2.06e-12 2.83e-12 3.52e-12 4.13e-12 4.68e-12 5.17e-12 5.61e-12 6.35e-12 6.97e-12 7.48e-12 7.91e-12 8.28e-12 8.6e-12 8.87e-12 9.11e-12 9.32e-12 9.5e-12 
03 02 01  09 00 09 0 1e-14 3e-14 1.5e-13 3.4e-13 5.5e-13 7.8e-13 1.01e-12 1.24e-12 1.45e-12 1.66e-12 2.04e-12 2.39e-12 2.71e-12 3.01e-12 3.29e-12 3.56e-12 3.81e-12 4.06e-12 4.3e-12 4.53e-12 
03 02 01  10 00 10 0 0 0 4e-14 1.2e-13 2.4e-13 3.8e-13 5.4e-13 7.1e-13 8.9e-13 1.08e-12 1.45e-12 1.81e-12 2.16e-12 2.5e-12 2.81e-12 3.11e-12 3.39e-12 3.65e-12 3.9e-12 4.13e-12 
03 02 01  11 00 11 0 0 0 1e-14 4e-14 1e-13 1.7e-13 2.6e-13 3.6e-13 4.6e-13 5.8e-13 8.2e-13 1.06e-12 1.31e-12 1.56e-12 1.81e-12 2.06e-12 2.31e-12 2.55e-12 2.79e-12 3.02e-12 
03 02 01  12 00 12 0 0 0 0 0 1e-14 3e-14 5e-14 7e-14 1.1e-13 1.5e-13 2.4e-13 3.5e-13 4.8e-13 6.2e-13 7.7e-13 9.2e-13 1.08e-12 1.24e-12 1.4e-12 1.57e-12 
03 02 01  02 02 01 1.17e-11 1.32e-11 1.45e-11 1.63e-11 1.76e-11 1.87e-11 1.96e-11 2.04e-11 2.11e-11 2.18e-11 2.24e-11 2.34e-11 2.43e-11 2.5e-11 2.57e-11 2.63e-11 2.68e-11 2.73e-11 2.78e-11 2.82e-11 2.86e-11 
03 02 01  02 02 00 2.94e-11 2.97e-11 2.97e-11 2.95e-11 2.92e-11 2.9e-11 2.89e-11 2.87e-11 2.87e-11 2.86e-11 2.85e-11 2.85e-11 2.84e-11 2.84e-11 2.83e-11 2.83e-11 2.83e-11 2.82e-11 2.82e-11 2.82e-11 2.82e-11 
03 02 01  03 02 02 3.47e-11 3.67e-11 3.74e-11 3.75e-11 3.73e-11 3.7e-11 3.67e-11 3.65e-11 3.63e-11 3.62e-11 3.61e-11 3.6e-11 3.59e-11 3.58e-11 3.57e-11 3.57e-11 3.57e-11 3.56e-11 3.56e-11 3.56e-11 3.55e-11 
03 02 01  03 02 01 0 0 0 0 0 0 0 0 0 0 0 0 0 0 0 0 0 0 0 0 0 
03 02 01  04 02 03 2.66e-12 4.82e-12 6.78e-12 9.92e-12 1.23e-11 1.43e-11 1.59e-11 1.73e-11 1.84e-11 1.94e-11 2.02e-11 2.17e-11 2.3e-11 2.4e-11 2.49e-11 2.57e-11 2.64e-11 2.71e-11 2.77e-11 2.81e-11 2.87e-11 
03 02 01  04 02 02 1.16e-11 1.93e-11 2.52e-11 3.3e-11 3.79e-11 4.11e-11 4.34e-11 4.5e-11 4.63e-11 4.72e-11 4.81e-11 4.92e-11 5.02e-11 5.07e-11 5.12e-11 5.16e-11 5.18e-11 5.19e-11 5.2e-11 5.21e-11 5.22e-11 
03 02 01  05 02 04 4.3e-13 1.2e-12 2.02e-12 3.49e-12 4.78e-12 5.91e-12 6.93e-12 7.84e-12 8.65e-12 9.38e-12 1e-11 1.11e-11 1.2e-11 1.28e-11 1.35e-11 1.4e-11 1.46e-11 1.49e-11 1.53e-11 1.56e-11 1.6e-11 
03 02 01  05 02 03 2.6e-13 8.5e-13 1.64e-12 3.46e-12 5.33e-12 7.12e-12 8.8e-12 1.03e-11 1.18e-11 1.31e-11 1.43e-11 1.64e-11 1.83e-11 1.99e-11 2.14e-11 2.26e-11 2.37e-11 2.48e-11 2.58e-11 2.67e-11 2.75e-11 
03 02 01  06 02 05 6e-14 3.1e-13 7.2e-13 1.68e-12 2.6e-12 3.45e-12 4.23e-12 4.93e-12 5.58e-12 6.19e-12 6.76e-12 7.79e-12 8.71e-12 9.54e-12 1.03e-11 1.1e-11 1.16e-11 1.22e-11 1.27e-11 1.31e-11 1.35e-11 
03 02 01  06 02 04 4e-14 2.3e-13 5.7e-13 1.5e-12 2.55e-12 3.6e-12 4.59e-12 5.52e-12 6.36e-12 7.13e-12 7.84e-12 9.08e-12 1.01e-11 1.1e-11 1.18e-11 1.25e-11 1.31e-11 1.37e-11 1.42e-11 1.47e-11 1.51e-11 
03 02 01  07 02 06 1e-14 1.2e-13 4.2e-13 1.48e-12 2.76e-12 4.04e-12 5.24e-12 6.35e-12 7.36e-12 8.29e-12 9.16e-12 1.07e-11 1.2e-11 1.32e-11 1.43e-11 1.52e-11 1.6e-11 1.68e-11 1.74e-11 1.81e-11 1.86e-11 
03 02 01  07 02 05 0 2e-14 7e-14 2.7e-13 5.6e-13 9e-13 1.27e-12 1.64e-12 2.02e-12 2.4e-12 2.76e-12 3.48e-12 4.17e-12 4.81e-12 5.41e-12 5.97e-12 6.5e-12 7e-12 7.46e-12 7.9e-12 8.31e-12 
03 02 01  08 02 07 0 1e-14 5e-14 2.9e-13 7e-13 1.19e-12 1.69e-12 2.18e-12 2.65e-12 3.08e-12 3.49e-12 4.23e-12 4.88e-12 5.47e-12 6.01e-12 6.5e-12 6.97e-12 7.41e-12 7.81e-12 8.2e-12 8.58e-12 
03 02 01  08 02 06 0 1e-14 4e-14 2.1e-13 5.1e-13 8.7e-13 1.27e-12 1.67e-12 2.08e-12 2.47e-12 2.86e-12 3.61e-12 4.33e-12 4.99e-12 5.63e-12 6.24e-12 6.8e-12 7.34e-12 7.84e-12 8.32e-12 8.78e-12 
03 02 01  09 02 08 0 0 1e-14 1.2e-13 3.8e-13 7.8e-13 1.27e-12 1.81e-12 2.36e-12 2.92e-12 3.47e-12 4.54e-12 5.56e-12 6.52e-12 7.43e-12 8.29e-12 9.12e-12 9.91e-12 1.07e-11 1.14e-11 1.21e-11 
03 02 01  09 02 07 0 0 0 5e-14 1.5e-13 3.1e-13 5.1e-13 7.2e-13 9.5e-13 1.18e-12 1.4e-12 1.87e-12 2.32e-12 2.76e-12 3.18e-12 3.61e-12 4.03e-12 4.45e-12 4.85e-12 5.27e-12 5.67e-12 
03 02 01  10 02 09 0 0 0 1e-14 6e-14 1.4e-13 2.5e-13 3.8e-13 5.3e-13 6.8e-13 8.4e-13 1.16e-12 1.47e-12 1.76e-12 2.04e-12 2.31e-12 2.56e-12 2.81e-12 3.04e-12 3.27e-12 3.49e-12 
03 02 01  10 02 08 0 0 0 1e-14 4e-14 1.1e-13 2e-13 3.1e-13 4.4e-13 5.8e-13 7.3e-13 1.04e-12 1.35e-12 1.67e-12 1.98e-12 2.29e-12 2.59e-12 2.88e-12 3.17e-12 3.45e-12 3.71e-12 
03 02 01  11 02 10 0 0 0 0 2e-14 5e-14 1.1e-13 2e-13 3e-13 4.3e-13 5.6e-13 8.7e-13 1.21e-12 1.55e-12 1.9e-12 2.25e-12 2.58e-12 2.94e-12 3.26e-12 3.59e-12 3.9e-12 
03 02 01  11 02 09 0 0 0 0 2e-14 5e-14 1.1e-13 1.9e-13 2.9e-13 4.1e-13 5.5e-13 8.4e-13 1.17e-12 1.51e-12 1.86e-12 2.21e-12 2.57e-12 2.92e-12 3.29e-12 3.64e-12 3.99e-12 
03 02 01  04 04 01 0 0 0 1e-14 4e-14 9e-14 1.6e-13 2.6e-13 3.6e-13 4.8e-13 6e-13 8.7e-13 1.14e-12 1.43e-12 1.7e-12 1.98e-12 2.24e-12 2.5e-12 2.74e-12 2.99e-12 3.23e-12 
03 02 01  04 04 00 0 0 0 1e-14 4e-14 9e-14 1.6e-13 2.5e-13 3.4e-13 4.4e-13 5.5e-13 7.8e-13 1e-12 1.24e-12 1.46e-12 1.69e-12 1.91e-12 2.12e-12 2.33e-12 2.53e-12 2.73e-12 
03 02 01  05 04 02 0 0 0 0 1e-14 3e-14 6e-14 9e-14 1.3e-13 1.8e-13 2.3e-13 3.4e-13 4.5e-13 5.8e-13 7.2e-13 8.5e-13 1e-12 1.15e-12 1.3e-12 1.46e-12 1.62e-12 
03 02 01  05 04 01 0 0 0 1e-14 5e-14 1.3e-13 2.3e-13 3.7e-13 5.2e-13 6.9e-13 8.7e-13 1.26e-12 1.66e-12 2.07e-12 2.47e-12 2.87e-12 3.28e-12 3.68e-12 4.07e-12 4.47e-12 4.86e-12 
03 02 01  06 04 03 0 0 0 0 1e-14 3e-14 5e-14 8e-14 1.2e-13 1.6e-13 2e-13 3e-13 4e-13 5.1e-13 6.4e-13 7.8e-13 9.2e-13 1.09e-12 1.28e-12 1.48e-12 1.69e-12 
03 02 01  06 04 02 0 0 0 1e-14 3e-14 8e-14 1.5e-13 2.4e-13 3.3e-13 4.4e-13 5.5e-13 7.6e-13 9.9e-13 1.2e-12 1.42e-12 1.63e-12 1.84e-12 2.05e-12 2.26e-12 2.46e-12 2.68e-12 
03 02 01  07 04 04 0 0 0 0 1e-14 2e-14 5e-14 8e-14 1.2e-13 1.7e-13 2.2e-13 3.3e-13 4.4e-13 5.6e-13 6.8e-13 8e-13 9.2e-13 1.04e-12 1.15e-12 1.26e-12 1.37e-12 
03 02 01  07 04 03 0 0 0 0 2e-14 7e-14 1.5e-13 2.6e-13 4e-13 5.6e-13 7.4e-13 1.13e-12 1.56e-12 1.99e-12 2.44e-12 2.89e-12 3.35e-12 3.8e-12 4.25e-12 4.7e-12 5.15e-12 
04 02 03  00 00 00 0 0 0 0 0 0 0 0 0 0 0 0 0 0 0 0 0 0 0 0 0 
04 02 03  01 00 01 9.2e-13 8.9e-13 8.8e-13 9.1e-13 9.4e-13 9.8e-13 1.01e-12 1.05e-12 1.08e-12 1.12e-12 1.16e-12 1.24e-12 1.31e-12 1.39e-12 1.46e-12 1.53e-12 1.6e-12 1.66e-12 1.72e-12 1.78e-12 1.83e-12 
04 02 03  02 00 02 6.07e-12 5.83e-12 5.75e-12 5.76e-12 5.85e-12 5.95e-12 6.06e-12 6.17e-12 6.27e-12 6.37e-12 6.47e-12 6.65e-12 6.83e-12 7e-12 7.16e-12 7.31e-12 7.46e-12 7.6e-12 7.74e-12 7.87e-12 8e-12 
04 02 03  03 00 03 1.02e-11 1.01e-11 1.02e-11 1.06e-11 1.11e-11 1.17e-11 1.23e-11 1.29e-11 1.35e-11 1.41e-11 1.46e-11 1.56e-11 1.66e-11 1.75e-11 1.83e-11 1.91e-11 1.98e-11 2.05e-11 2.11e-11 2.17e-11 2.22e-11 
04 02 03  04 00 04 1.43e-11 1.36e-11 1.33e-11 1.29e-11 1.28e-11 1.27e-11 1.27e-11 1.27e-11 1.27e-11 1.27e-11 1.27e-11 1.27e-11 1.28e-11 1.28e-11 1.28e-11 1.29e-11 1.29e-11 1.3e-11 1.3e-11 1.31e-11 1.32e-11 
04 02 03  05 00 05 7.21e-12 7.19e-12 7.25e-12 7.39e-12 7.49e-12 7.59e-12 7.68e-12 7.78e-12 7.9e-12 8.02e-12 8.15e-12 8.43e-12 8.72e-12 9.01e-12 9.3e-12 9.58e-12 9.86e-12 1.01e-11 1.04e-11 1.06e-11 1.09e-11 
04 02 03  06 00 06 1.64e-11 1.64e-11 1.63e-11 1.61e-11 1.6e-11 1.59e-11 1.59e-11 1.59e-11 1.6e-11 1.6e-11 1.6e-11 1.61e-11 1.62e-11 1.63e-11 1.64e-11 1.64e-11 1.65e-11 1.65e-11 1.65e-11 1.66e-11 1.66e-11 
04 02 03  07 00 07 3.24e-12 5.28e-12 6.66e-12 8.25e-12 9.09e-12 9.58e-12 9.89e-12 1.01e-11 1.02e-11 1.04e-11 1.04e-11 1.06e-11 1.07e-11 1.08e-11 1.09e-11 1.1e-11 1.11e-11 1.11e-11 1.12e-11 1.13e-11 1.14e-11 
04 02 03  08 00 08 2.5e-13 1.04e-12 2.12e-12 4.32e-12 6.12e-12 7.49e-12 8.53e-12 9.32e-12 9.95e-12 1.05e-11 1.09e-11 1.15e-11 1.2e-11 1.24e-11 1.27e-11 1.3e-11 1.32e-11 1.35e-11 1.37e-11 1.38e-11 1.4e-11 
04 02 03  09 00 09 0 3e-14 1e-13 3.8e-13 7.7e-13 1.19e-12 1.59e-12 1.97e-12 2.31e-12 2.63e-12 2.91e-12 3.4e-12 3.82e-12 4.18e-12 4.51e-12 4.81e-12 5.1e-12 5.37e-12 5.63e-12 5.89e-12 6.14e-12 
04 02 03  10 00 10 0 0 1e-14 9e-14 2.6e-13 4.9e-13 7.6e-13 1.04e-12 1.33e-12 1.61e-12 1.88e-12 2.38e-12 2.83e-12 3.23e-12 3.59e-12 3.91e-12 4.19e-12 4.44e-12 4.68e-12 4.89e-12 5.08e-12 
04 02 03  11 00 11 0 0 0 2e-14 6e-14 1.3e-13 2.2e-13 3.4e-13 4.6e-13 5.9e-13 7.3e-13 1.01e-12 1.3e-12 1.57e-12 1.84e-12 2.1e-12 2.36e-12 2.61e-12 2.86e-12 3.11e-12 3.35e-12 
04 02 03  12 00 12 0 0 0 0 1e-14 3e-14 5e-14 1e-13 1.5e-13 2.2e-13 2.9e-13 4.7e-13 6.8e-13 8.9e-13 1.11e-12 1.34e-12 1.56e-12 1.78e-12 1.99e-12 2.21e-12 2.41e-12 
04 02 03  02 02 01 1.06e-11 1.01e-11 9.84e-12 9.87e-12 1.02e-11 1.06e-11 1.1e-11 1.14e-11 1.18e-11 1.22e-11 1.25e-11 1.32e-11 1.37e-11 1.42e-11 1.47e-11 1.51e-11 1.55e-11 1.58e-11 1.61e-11 1.64e-11 1.67e-11 
04 02 03  02 02 00 1.08e-11 1.06e-11 1.06e-11 1.08e-11 1.1e-11 1.12e-11 1.15e-11 1.16e-11 1.18e-11 1.2e-11 1.21e-11 1.24e-11 1.26e-11 1.28e-11 1.3e-11 1.32e-11 1.33e-11 1.34e-11 1.35e-11 1.36e-11 1.36e-11 
04 02 03  03 02 02 3.65e-11 3.68e-11 3.7e-11 3.74e-11 3.78e-11 3.81e-11 3.83e-11 3.85e-11 3.86e-11 3.87e-11 3.88e-11 3.89e-11 3.9e-11 3.91e-11 3.91e-11 3.92e-11 3.93e-11 3.93e-11 3.94e-11 3.94e-11 3.95e-11 
04 02 03  03 02 01 8.38e-12 9.52e-12 1.06e-11 1.23e-11 1.36e-11 1.47e-11 1.56e-11 1.64e-11 1.7e-11 1.76e-11 1.81e-11 1.9e-11 1.98e-11 2.04e-11 2.09e-11 2.14e-11 2.19e-11 2.23e-11 2.27e-11 2.3e-11 2.34e-11 
04 02 03  04 02 03 0 0 0 0 0 0 0 0 0 0 0 0 0 0 0 0 0 0 0 0 0 
04 02 03  04 02 02 2.37e-11 2.44e-11 2.43e-11 2.4e-11 2.37e-11 2.35e-11 2.34e-11 2.34e-11 2.34e-11 2.35e-11 2.36e-11 2.38e-11 2.39e-11 2.41e-11 2.43e-11 2.44e-11 2.46e-11 2.47e-11 2.48e-11 2.49e-11 2.5e-11 
04 02 03  05 02 04 9.27e-12 1.66e-11 2.2e-11 2.9e-11 3.33e-11 3.6e-11 3.8e-11 3.95e-11 4.08e-11 4.18e-11 4.26e-11 4.38e-11 4.49e-11 4.56e-11 4.63e-11 4.68e-11 4.73e-11 4.77e-11 4.8e-11 4.83e-11 4.87e-11 
04 02 03  05 02 03 2.19e-12 4.08e-12 5.61e-12 7.78e-12 9.4e-12 1.07e-11 1.17e-11 1.26e-11 1.34e-11 1.41e-11 1.48e-11 1.6e-11 1.69e-11 1.79e-11 1.86e-11 1.94e-11 2.01e-11 2.07e-11 2.13e-11 2.18e-11 2.24e-11 
04 02 03  06 02 05 2e-13 7.1e-13 1.36e-12 2.7e-12 4.02e-12 5.31e-12 6.56e-12 7.77e-12 8.93e-12 1.01e-11 1.11e-11 1.31e-11 1.48e-11 1.64e-11 1.78e-11 1.91e-11 2.03e-11 2.13e-11 2.23e-11 2.32e-11 2.4e-11 
04 02 03  06 02 04 3.4e-13 1.21e-12 2.3e-12 4.45e-12 6.24e-12 7.7e-12 8.98e-12 1e-11 1.09e-11 1.17e-11 1.24e-11 1.35e-11 1.45e-11 1.53e-11 1.6e-11 1.66e-11 1.71e-11 1.76e-11 1.79e-11 1.84e-11 1.87e-11 
04 02 03  07 02 06 2e-14 1.9e-13 5.3e-13 1.53e-12 2.63e-12 3.69e-12 4.67e-12 5.56e-12 6.38e-12 7.12e-12 7.8e-12 9.02e-12 1.01e-11 1.1e-11 1.19e-11 1.25e-11 1.32e-11 1.37e-11 1.43e-11 1.48e-11 1.51e-11 
04 02 03  07 02 05 2e-14 1.4e-13 4e-13 1.17e-12 2.05e-12 2.93e-12 3.76e-12 4.52e-12 5.22e-12 5.86e-12 6.45e-12 7.49e-12 8.39e-12 9.19e-12 9.89e-12 1.05e-11 1.11e-11 1.16e-11 1.21e-11 1.25e-11 1.3e-11 
04 02 03  08 02 07 0 2e-14 8e-14 3.6e-13 7.8e-13 1.26e-12 1.74e-12 2.21e-12 2.66e-12 3.1e-12 3.53e-12 4.32e-12 5.07e-12 5.78e-12 6.44e-12 7.06e-12 7.65e-12 8.19e-12 8.7e-12 9.16e-12 9.6e-12 
04 02 03  08 02 06 0 2e-14 1e-13 4.7e-13 1.05e-12 1.73e-12 2.44e-12 3.12e-12 3.79e-12 4.41e-12 5.01e-12 6.1e-12 7.08e-12 7.96e-12 8.76e-12 9.46e-12 1.01e-11 1.07e-11 1.12e-11 1.17e-11 1.21e-11 
04 02 03  09 02 08 0 0 3e-14 2.1e-13 5.9e-13 1.1e-12 1.68e-12 2.28e-12 2.89e-12 3.49e-12 4.06e-12 5.17e-12 6.19e-12 7.14e-12 8.03e-12 8.85e-12 9.65e-12 1.04e-11 1.11e-11 1.18e-11 1.24e-11 
04 02 03  09 02 07 0 0 1e-14 6e-14 1.7e-13 3.4e-13 5.4e-13 7.7e-13 1e-12 1.25e-12 1.49e-12 1.97e-12 2.45e-12 2.92e-12 3.37e-12 3.8e-12 4.24e-12 4.65e-12 5.08e-12 5.48e-12 5.88e-12 
04 02 03  10 02 09 0 0 0 3e-14 1.1e-13 2.6e-13 4.4e-13 6.5e-13 8.7e-13 1.09e-12 1.31e-12 1.74e-12 2.15e-12 2.54e-12 2.92e-12 3.31e-12 3.68e-12 4.05e-12 4.42e-12 4.82e-12 5.21e-12 
04 02 03  10 02 08 0 0 0 2e-14 6e-14 1.4e-13 2.6e-13 4e-13 5.5e-13 7.2e-13 9.1e-13 1.28e-12 1.68e-12 2.08e-12 2.47e-12 2.86e-12 3.24e-12 3.62e-12 3.98e-12 4.34e-12 4.68e-12 
04 02 03  11 02 10 0 0 0 1e-14 4e-14 1.1e-13 2.3e-13 3.8e-13 5.5e-13 7.5e-13 9.6e-13 1.4e-12 1.84e-12 2.29e-12 2.73e-12 3.16e-12 3.58e-12 3.99e-12 4.38e-12 4.76e-12 5.14e-12 
04 02 03  11 02 09 0 0 0 0 2e-14 7e-14 1.4e-13 2.3e-13 3.4e-13 4.6e-13 6e-13 9e-13 1.22e-12 1.56e-12 1.9e-12 2.26e-12 2.6e-12 2.95e-12 3.3e-12 3.65e-12 3.98e-12 
04 02 03  04 04 01 0 0 0 1e-14 5e-14 1.1e-13 1.8e-13 2.7e-13 3.7e-13 4.7e-13 5.7e-13 7.9e-13 1e-12 1.21e-12 1.41e-12 1.61e-12 1.81e-12 2e-12 2.19e-12 2.38e-12 2.57e-12 
04 02 03  04 04 00 0 0 0 2e-14 6e-14 1.3e-13 2.2e-13 3.2e-13 4.3e-13 5.5e-13 6.7e-13 9.2e-13 1.18e-12 1.43e-12 1.69e-12 1.94e-12 2.19e-12 2.44e-12 2.68e-12 2.92e-12 3.15e-12 
04 02 03  05 04 02 0 0 0 1e-14 4e-14 8e-14 1.5e-13 2.2e-13 3e-13 3.9e-13 4.8e-13 6.7e-13 8.7e-13 1.06e-12 1.26e-12 1.46e-12 1.66e-12 1.86e-12 2.06e-12 2.27e-12 2.48e-12 
04 02 03  05 04 01 0 0 0 1e-14 4e-14 9e-14 1.6e-13 2.6e-13 3.7e-13 4.8e-13 6.1e-13 8.8e-13 1.16e-12 1.44e-12 1.72e-12 2.01e-12 2.28e-12 2.55e-12 2.83e-12 3.09e-12 3.35e-12 
04 02 03  06 04 03 0 0 0 1e-14 4e-14 1.1e-13 2.2e-13 3.5e-13 5e-13 6.8e-13 8.7e-13 1.27e-12 1.7e-12 2.15e-12 2.6e-12 3.05e-12 3.51e-12 3.96e-12 4.41e-12 4.86e-12 5.31e-12 
04 02 03  06 04 02 0 0 0 0 1e-14 4e-14 7e-14 1e-13 1.5e-13 1.9e-13 2.4e-13 3.5e-13 4.7e-13 5.9e-13 7.1e-13 8.3e-13 9.6e-13 1.09e-12 1.21e-12 1.34e-12 1.46e-12 
04 02 03  07 04 04 0 0 0 0 2e-14 6e-14 1.2e-13 2.1e-13 3.2e-13 4.4e-13 5.7e-13 8.7e-13 1.18e-12 1.51e-12 1.83e-12 2.15e-12 2.47e-12 2.78e-12 3.08e-12 3.37e-12 3.64e-12 
04 02 03  07 04 03 0 0 0 0 2e-14 5e-14 9e-14 1.6e-13 2.3e-13 3.1e-13 4e-13 5.8e-13 7.6e-13 9.3e-13 1.09e-12 1.24e-12 1.38e-12 1.51e-12 1.63e-12 1.74e-12 1.83e-12 
04 02 02  00 00 00 1.09e-12 1.1e-12 1.12e-12 1.16e-12 1.21e-12 1.27e-12 1.32e-12 1.38e-12 1.43e-12 1.49e-12 1.55e-12 1.67e-12 1.78e-12 1.89e-12 2e-12 2.11e-12 2.21e-12 2.31e-12 2.41e-12 2.5e-12 2.59e-12 
04 02 02  01 00 01 5.86e-12 5.62e-12 5.49e-12 5.37e-12 5.33e-12 5.33e-12 5.35e-12 5.39e-12 5.43e-12 5.49e-12 5.55e-12 5.68e-12 5.82e-12 5.96e-12 6.1e-12 6.24e-12 6.38e-12 6.51e-12 6.64e-12 6.76e-12 6.87e-12 
04 02 02  02 00 02 4.57e-12 4.19e-12 4.01e-12 3.9e-12 3.96e-12 4.09e-12 4.24e-12 4.4e-12 4.57e-12 4.73e-12 4.89e-12 5.19e-12 5.47e-12 5.74e-12 5.98e-12 6.2e-12 6.41e-12 6.61e-12 6.79e-12 6.96e-12 7.12e-12 
04 02 02  03 00 03 6.92e-12 6.03e-12 5.44e-12 4.76e-12 4.41e-12 4.22e-12 4.11e-12 4.05e-12 4.01e-12 3.99e-12 3.97e-12 3.95e-12 3.95e-12 3.94e-12 3.94e-12 3.95e-12 3.95e-12 3.97e-12 3.98e-12 4e-12 4.03e-12 
04 02 02  04 00 04 1.39e-11 1.29e-11 1.24e-11 1.2e-11 1.2e-11 1.22e-11 1.25e-11 1.28e-11 1.31e-11 1.35e-11 1.39e-11 1.46e-11 1.53e-11 1.6e-11 1.66e-11 1.72e-11 1.78e-11 1.83e-11 1.88e-11 1.93e-11 1.97e-11 
04 02 02  05 00 05 1.82e-11 1.76e-11 1.74e-11 1.72e-11 1.72e-11 1.73e-11 1.74e-11 1.75e-11 1.75e-11 1.76e-11 1.77e-11 1.79e-11 1.8e-11 1.82e-11 1.83e-11 1.84e-11 1.85e-11 1.87e-11 1.88e-11 1.89e-11 1.9e-11 
04 02 02  06 00 06 1.45e-11 1.4e-11 1.36e-11 1.31e-11 1.28e-11 1.26e-11 1.24e-11 1.23e-11 1.23e-11 1.22e-11 1.22e-11 1.22e-11 1.22e-11 1.22e-11 1.23e-11 1.24e-11 1.25e-11 1.26e-11 1.27e-11 1.28e-11 1.29e-11 
04 02 02  07 00 07 4.91e-12 8.1e-12 1.03e-11 1.3e-11 1.45e-11 1.53e-11 1.59e-11 1.62e-11 1.64e-11 1.66e-11 1.67e-11 1.68e-11 1.68e-11 1.68e-11 1.69e-11 1.69e-11 1.69e-11 1.69e-11 1.69e-11 1.69e-11 1.69e-11 
04 02 02  08 00 08 1e-13 4.4e-13 9.2e-13 1.89e-12 2.73e-12 3.42e-12 3.97e-12 4.43e-12 4.81e-12 5.13e-12 5.4e-12 5.85e-12 6.21e-12 6.5e-12 6.76e-12 6.99e-12 7.19e-12 7.38e-12 7.56e-12 7.72e-12 7.87e-12 
04 02 02  09 00 09 1e-14 6e-14 2.1e-13 7.4e-13 1.4e-12 2.07e-12 2.7e-12 3.27e-12 3.79e-12 4.26e-12 4.69e-12 5.42e-12 6.02e-12 6.53e-12 6.97e-12 7.34e-12 7.66e-12 7.94e-12 8.19e-12 8.41e-12 8.6e-12 
04 02 02  10 00 10 0 0 1e-14 8e-14 2.2e-13 4.1e-13 6.2e-13 8.5e-13 1.08e-12 1.3e-12 1.52e-12 1.94e-12 2.33e-12 2.7e-12 3.04e-12 3.36e-12 3.66e-12 3.94e-12 4.22e-12 4.48e-12 4.74e-12 
04 02 02  11 00 11 0 0 0 1e-14 5e-14 1.1e-13 2e-13 3.1e-13 4.3e-13 5.7e-13 7.1e-13 1e-12 1.31e-12 1.61e-12 1.9e-12 2.19e-12 2.46e-12 2.72e-12 2.96e-12 3.2e-12 3.42e-12 
04 02 02  12 00 12 0 0 0 0 2e-14 4e-14 8e-14 1.4e-13 2.1e-13 2.9e-13 3.7e-13 5.7e-13 8e-13 1.03e-12 1.27e-12 1.52e-12 1.76e-12 2.01e-12 2.25e-12 2.49e-12 2.72e-12 
04 02 02  02 02 01 4.54e-12 4.58e-12 4.61e-12 4.69e-12 4.82e-12 4.98e-12 5.16e-12 5.33e-12 5.51e-12 5.67e-12 5.82e-12 6.09e-12 6.33e-12 6.53e-12 6.7e-12 6.85e-12 6.99e-12 7.11e-12 7.21e-12 7.31e-12 7.39e-12 
04 02 02  02 02 00 4.63e-12 4.7e-12 4.92e-12 5.52e-12 6.21e-12 6.9e-12 7.57e-12 8.2e-12 8.8e-12 9.36e-12 9.88e-12 1.08e-11 1.17e-11 1.25e-11 1.31e-11 1.38e-11 1.43e-11 1.48e-11 1.53e-11 1.57e-11 1.61e-11 
04 02 02  03 02 02 8.49e-12 9.28e-12 1.01e-11 1.14e-11 1.24e-11 1.33e-11 1.41e-11 1.48e-11 1.54e-11 1.59e-11 1.64e-11 1.74e-11 1.82e-11 1.89e-11 1.96e-11 2.02e-11 2.08e-11 2.13e-11 2.18e-11 2.23e-11 2.28e-11 
04 02 02  03 02 01 3.64e-11 3.81e-11 3.94e-11 4.09e-11 4.18e-11 4.23e-11 4.26e-11 4.27e-11 4.29e-11 4.29e-11 4.3e-11 4.3e-11 4.31e-11 4.3e-11 4.3e-11 4.3e-11 4.29e-11 4.28e-11 4.27e-11 4.26e-11 4.25e-11 
04 02 02  04 02 03 2.37e-11 2.44e-11 2.43e-11 2.4e-11 2.37e-11 2.35e-11 2.34e-11 2.34e-11 2.34e-11 2.35e-11 2.36e-11 2.38e-11 2.39e-11 2.41e-11 2.43e-11 2.44e-11 2.46e-11 2.47e-11 2.48e-11 2.49e-11 2.5e-11 
04 02 02  04 02 02 0 0 0 0 0 0 0 0 0 0 0 0 0 0 0 0 0 0 0 0 0 
04 02 02  05 02 04 8.5e-13 1.91e-12 3.02e-12 5.06e-12 6.82e-12 8.32e-12 9.68e-12 1.08e-11 1.18e-11 1.27e-11 1.35e-11 1.49e-11 1.62e-11 1.72e-11 1.81e-11 1.88e-11 1.95e-11 2.02e-11 2.08e-11 2.14e-11 2.18e-11 
04 02 02  05 02 03 9.69e-12 1.75e-11 2.35e-11 3.17e-11 3.7e-11 4.06e-11 4.32e-11 4.52e-11 4.68e-11 4.81e-11 4.92e-11 5.07e-11 5.19e-11 5.28e-11 5.36e-11 5.41e-11 5.45e-11 5.49e-11 5.52e-11 5.55e-11 5.57e-11 
04 02 02  06 02 05 1.5e-13 5.2e-13 9.9e-13 1.92e-12 2.76e-12 3.54e-12 4.26e-12 4.91e-12 5.53e-12 6.11e-12 6.64e-12 7.58e-12 8.4e-12 9.11e-12 9.74e-12 1.03e-11 1.08e-11 1.13e-11 1.18e-11 1.22e-11 1.26e-11 
04 02 02  06 02 04 1.9e-13 7e-13 1.36e-12 2.81e-12 4.29e-12 5.76e-12 7.19e-12 8.59e-12 9.92e-12 1.11e-11 1.23e-11 1.45e-11 1.64e-11 1.81e-11 1.95e-11 2.07e-11 2.2e-11 2.3e-11 2.41e-11 2.49e-11 2.58e-11 
04 02 02  07 02 06 1e-14 1e-13 2.8e-13 7.9e-13 1.36e-12 1.93e-12 2.48e-12 3.01e-12 3.51e-12 3.99e-12 4.47e-12 5.36e-12 6.21e-12 7e-12 7.74e-12 8.46e-12 9.12e-12 9.73e-12 1.03e-11 1.08e-11 1.13e-11 
04 02 02  07 02 05 2e-14 1.4e-13 3.9e-13 1.18e-12 2.11e-12 3.07e-12 4e-12 4.89e-12 5.73e-12 6.51e-12 7.25e-12 8.58e-12 9.74e-12 1.08e-11 1.17e-11 1.25e-11 1.33e-11 1.39e-11 1.45e-11 1.5e-11 1.55e-11 
04 02 02  08 02 07 0 3e-14 1.5e-13 6.7e-13 1.42e-12 2.24e-12 3.04e-12 3.81e-12 4.53e-12 5.2e-12 5.84e-12 7.01e-12 8.06e-12 8.98e-12 9.83e-12 1.06e-11 1.13e-11 1.19e-11 1.25e-11 1.3e-11 1.34e-11 
04 02 02  08 02 06 0 1e-14 5e-14 2.1e-13 4.8e-13 7.9e-13 1.13e-12 1.48e-12 1.83e-12 2.18e-12 2.52e-12 3.2e-12 3.84e-12 4.46e-12 5.04e-12 5.59e-12 6.1e-12 6.57e-12 7.02e-12 7.41e-12 7.79e-12 
04 02 02  09 02 08 0 0 2e-14 1.4e-13 3.9e-13 7.1e-13 1.06e-12 1.42e-12 1.77e-12 2.1e-12 2.42e-12 2.99e-12 3.51e-12 3.98e-12 4.41e-12 4.82e-12 5.22e-12 5.59e-12 5.96e-12 6.32e-12 6.68e-12 
04 02 02  09 02 07 0 0 1e-14 1.2e-13 3.3e-13 6.2e-13 9.5e-13 1.3e-12 1.66e-12 2.01e-12 2.36e-12 3.03e-12 3.68e-12 4.28e-12 4.85e-12 5.38e-12 5.91e-12 6.4e-12 6.88e-12 7.34e-12 7.79e-12 
04 02 02  10 02 09 0 0 0 5e-14 1.8e-13 4e-13 6.9e-13 1.02e-12 1.38e-12 1.74e-12 2.11e-12 2.83e-12 3.52e-12 4.19e-12 4.84e-12 5.47e-12 6.09e-12 6.69e-12 7.28e-12 7.85e-12 8.41e-12 
04 02 02  10 02 08 0 0 0 2e-14 7e-14 1.7e-13 3e-13 4.5e-13 6.2e-13 8.1e-13 9.9e-13 1.37e-12 1.75e-12 2.14e-12 2.54e-12 2.94e-12 3.36e-12 3.77e-12 4.19e-12 4.63e-12 5.06e-12 
04 02 02  11 02 10 0 0 0 1e-14 3e-14 8e-14 1.7e-13 2.8e-13 4.1e-13 5.6e-13 7.2e-13 1.06e-12 1.4e-12 1.75e-12 2.09e-12 2.41e-12 2.72e-12 3.02e-12 3.31e-12 3.6e-12 3.86e-12 
04 02 02  11 02 09 0 0 0 0 2e-14 5e-14 1e-13 1.6e-13 2.5e-13 3.4e-13 4.4e-13 6.8e-13 9.3e-13 1.2e-12 1.46e-12 1.75e-12 2.03e-12 2.32e-12 2.6e-12 2.88e-12 3.18e-12 
04 02 02  04 04 01 0 0 0 2e-14 5e-14 1.1e-13 1.9e-13 2.9e-13 3.9e-13 5e-13 6.1e-13 8.5e-13 1.09e-12 1.32e-12 1.56e-12 1.8e-12 2.03e-12 2.26e-12 2.5e-12 2.73e-12 2.97e-12 
04 02 02  04 04 00 0 0 0 1e-14 5e-14 1.1e-13 1.8e-13 2.7e-13 3.6e-13 4.7e-13 5.7e-13 7.9e-13 1e-12 1.22e-12 1.42e-12 1.62e-12 1.82e-12 2.01e-12 2.2e-12 2.38e-12 2.56e-12 
04 02 02  05 04 02 0 0 0 1e-14 2e-14 6e-14 1.2e-13 1.9e-13 2.7e-13 3.7e-13 4.7e-13 6.8e-13 9.1e-13 1.14e-12 1.37e-12 1.6e-12 1.83e-12 2.06e-12 2.28e-12 2.51e-12 2.73e-12 
04 02 02  05 04 01 0 0 0 1e-14 4e-14 9e-14 1.6e-13 2.4e-13 3.3e-13 4.2e-13 5.1e-13 7.1e-13 9.2e-13 1.12e-12 1.33e-12 1.54e-12 1.74e-12 1.94e-12 2.14e-12 2.34e-12 2.53e-12 
04 02 02  06 04 03 0 0 0 0 1e-14 2e-14 4e-14 6e-14 9e-14 1.2e-13 1.5e-13 2.2e-13 3e-13 3.8e-13 4.6e-13 5.5e-13 6.4e-13 7.2e-13 8.2e-13 9e-13 1e-12 
04 02 02  06 04 02 0 0 0 1e-14 6e-14 1.4e-13 2.6e-13 4.1e-13 5.9e-13 7.7e-13 9.7e-13 1.39e-12 1.81e-12 2.24e-12 2.66e-12 3.08e-12 3.49e-12 3.89e-12 4.29e-12 4.68e-12 5.07e-12 
04 02 02  07 04 04 0 0 0 0 1e-14 2e-14 4e-14 6e-14 9e-14 1.2e-13 1.6e-13 2.4e-13 3.3e-13 4.2e-13 5.2e-13 6.1e-13 7e-13 8e-13 8.9e-13 9.9e-13 1.08e-12 
04 02 02  07 04 03 0 0 0 1e-14 3e-14 9e-14 1.9e-13 3.2e-13 4.8e-13 6.5e-13 8.3e-13 1.22e-12 1.62e-12 2.02e-12 2.41e-12 2.79e-12 3.15e-12 3.49e-12 3.83e-12 4.15e-12 4.46e-12 
05 02 04  00 00 00 0 0 0 0 0 0 0 0 0 0 0 0 0 0 0 0 0 0 0 0 0 
05 02 04  01 00 01 5.9e-13 6.2e-13 6.4e-13 6.8e-13 7.1e-13 7.2e-13 7.4e-13 7.5e-13 7.6e-13 7.7e-13 7.8e-13 8e-13 8.2e-13 8.3e-13 8.5e-13 8.7e-13 8.8e-13 9e-13 9.2e-13 9.3e-13 9.5e-13 
05 02 04  02 00 02 3.11e-12 2.9e-12 2.73e-12 2.5e-12 2.39e-12 2.33e-12 2.31e-12 2.31e-12 2.33e-12 2.35e-12 2.39e-12 2.47e-12 2.56e-12 2.66e-12 2.76e-12 2.87e-12 2.97e-12 3.08e-12 3.18e-12 3.28e-12 3.38e-12 
05 02 04  03 00 03 1.04e-11 9.94e-12 9.53e-12 9e-12 8.73e-12 8.61e-12 8.56e-12 8.57e-12 8.6e-12 8.64e-12 8.7e-12 8.84e-12 8.99e-12 9.14e-12 9.3e-12 9.45e-12 9.61e-12 9.76e-12 9.91e-12 1.01e-11 1.02e-11 
05 02 04  04 00 04 1.92e-11 1.78e-11 1.66e-11 1.51e-11 1.44e-11 1.41e-11 1.41e-11 1.42e-11 1.43e-11 1.46e-11 1.48e-11 1.54e-11 1.6e-11 1.65e-11 1.71e-11 1.76e-11 1.81e-11 1.86e-11 1.9e-11 1.94e-11 1.98e-11 
05 02 04  05 00 05 1.94e-11 1.82e-11 1.72e-11 1.57e-11 1.47e-11 1.41e-11 1.36e-11 1.33e-11 1.31e-11 1.29e-11 1.28e-11 1.26e-11 1.25e-11 1.24e-11 1.24e-11 1.24e-11 1.23e-11 1.23e-11 1.23e-11 1.23e-11 1.23e-11 
05 02 04  06 00 06 8.56e-12 8.23e-12 7.98e-12 7.67e-12 7.52e-12 7.46e-12 7.44e-12 7.46e-12 7.5e-12 7.56e-12 7.62e-12 7.78e-12 7.96e-12 8.14e-12 8.33e-12 8.51e-12 8.7e-12 8.89e-12 9.08e-12 9.26e-12 9.45e-12 
05 02 04  07 00 07 2.28e-11 2.17e-11 2.06e-11 1.9e-11 1.79e-11 1.72e-11 1.67e-11 1.64e-11 1.61e-11 1.6e-11 1.58e-11 1.57e-11 1.56e-11 1.56e-11 1.56e-11 1.56e-11 1.56e-11 1.56e-11 1.57e-11 1.57e-11 1.57e-11 
05 02 04  08 00 08 1.24e-12 2.81e-12 4.18e-12 6.12e-12 7.32e-12 8.1e-12 8.64e-12 9.02e-12 9.31e-12 9.54e-12 9.72e-12 1e-11 1.02e-11 1.04e-11 1.06e-11 1.08e-11 1.1e-11 1.12e-11 1.13e-11 1.15e-11 1.16e-11 
05 02 04  09 00 09 6e-14 4.1e-13 1.06e-12 2.71e-12 4.3e-12 5.62e-12 6.69e-12 7.54e-12 8.23e-12 8.79e-12 9.25e-12 9.97e-12 1.05e-11 1.09e-11 1.12e-11 1.15e-11 1.18e-11 1.2e-11 1.22e-11 1.24e-11 1.26e-11 
05 02 04  10 00 10 0 1e-14 5e-14 2.6e-13 5.9e-13 9.8e-13 1.38e-12 1.76e-12 2.11e-12 2.43e-12 2.73e-12 3.24e-12 3.68e-12 4.05e-12 4.38e-12 4.69e-12 4.97e-12 5.24e-12 5.51e-12 5.77e-12 6.02e-12 
05 02 04  11 00 11 0 0 0 5e-14 1.5e-13 3.1e-13 5.1e-13 7.3e-13 9.7e-13 1.21e-12 1.44e-12 1.89e-12 2.3e-12 2.67e-12 3.01e-12 3.31e-12 3.59e-12 3.84e-12 4.07e-12 4.27e-12 4.47e-12 
05 02 04  12 00 12 0 0 0 1e-14 3e-14 8e-14 1.5e-13 2.4e-13 3.5e-13 4.8e-13 6.2e-13 9.1e-13 1.22e-12 1.53e-12 1.83e-12 2.12e-12 2.39e-12 2.65e-12 2.9e-12 3.13e-12 3.35e-12 
05 02 04  02 02 01 1.23e-11 1.22e-11 1.22e-11 1.22e-11 1.23e-11 1.24e-11 1.25e-11 1.26e-11 1.27e-11 1.28e-11 1.29e-11 1.3e-11 1.31e-11 1.32e-11 1.32e-11 1.33e-11 1.33e-11 1.34e-11 1.34e-11 1.34e-11 1.34e-11 
05 02 04  02 02 00 7.89e-12 7.84e-12 7.81e-12 7.82e-12 7.88e-12 7.97e-12 8.06e-12 8.17e-12 8.28e-12 8.4e-12 8.52e-12 8.76e-12 9.01e-12 9.25e-12 9.49e-12 9.71e-12 9.93e-12 1.01e-11 1.03e-11 1.05e-11 1.06e-11 
05 02 04  03 02 02 4.54e-12 4.82e-12 5.15e-12 5.91e-12 6.74e-12 7.57e-12 8.38e-12 9.15e-12 9.87e-12 1.06e-11 1.12e-11 1.23e-11 1.33e-11 1.42e-11 1.5e-11 1.57e-11 1.64e-11 1.7e-11 1.75e-11 1.8e-11 1.85e-11 
05 02 04  03 02 01 6.35e-12 6.24e-12 6.19e-12 6.34e-12 6.67e-12 7.06e-12 7.45e-12 7.82e-12 8.16e-12 8.47e-12 8.74e-12 9.21e-12 9.6e-12 9.93e-12 1.02e-11 1.04e-11 1.07e-11 1.08e-11 1.1e-11 1.11e-11 1.13e-11 
05 02 04  04 02 03 4.35e-11 4.35e-11 4.32e-11 4.25e-11 4.21e-11 4.18e-11 4.16e-11 4.15e-11 4.15e-11 4.15e-11 4.15e-11 4.15e-11 4.16e-11 4.16e-11 4.17e-11 4.18e-11 4.19e-11 4.2e-11 4.2e-11 4.21e-11 4.22e-11 
05 02 04  04 02 02 3.99e-12 5.01e-12 5.91e-12 7.41e-12 8.63e-12 9.66e-12 1.06e-11 1.13e-11 1.2e-11 1.26e-11 1.32e-11 1.41e-11 1.5e-11 1.57e-11 1.63e-11 1.68e-11 1.73e-11 1.78e-11 1.82e-11 1.86e-11 1.89e-11 
05 02 04  05 02 04 0 0 0 0 0 0 0 0 0 0 0 0 0 0 0 0 0 0 0 0 0 
05 02 04  05 02 03 2.25e-11 2.2e-11 2.12e-11 2e-11 1.92e-11 1.88e-11 1.85e-11 1.84e-11 1.83e-11 1.83e-11 1.83e-11 1.84e-11 1.85e-11 1.87e-11 1.89e-11 1.9e-11 1.92e-11 1.93e-11 1.95e-11 1.96e-11 1.98e-11 
05 02 04  06 02 05 5.62e-12 1.16e-11 1.68e-11 2.45e-11 2.96e-11 3.32e-11 3.57e-11 3.77e-11 3.91e-11 4.03e-11 4.13e-11 4.29e-11 4.41e-11 4.5e-11 4.58e-11 4.64e-11 4.7e-11 4.74e-11 4.77e-11 4.8e-11 4.83e-11 
05 02 04  06 02 04 1.23e-12 2.57e-12 3.77e-12 5.64e-12 7.07e-12 8.24e-12 9.17e-12 1.01e-11 1.08e-11 1.15e-11 1.22e-11 1.33e-11 1.42e-11 1.51e-11 1.59e-11 1.66e-11 1.72e-11 1.78e-11 1.82e-11 1.88e-11 1.92e-11 
05 02 04  07 02 06 1e-13 4.4e-13 9.4e-13 2.09e-12 3.28e-12 4.47e-12 5.65e-12 6.81e-12 7.96e-12 9.06e-12 1e-11 1.2e-11 1.38e-11 1.54e-11 1.69e-11 1.82e-11 1.93e-11 2.04e-11 2.15e-11 2.25e-11 2.33e-11 
05 02 04  07 02 05 1.8e-13 7.9e-13 1.67e-12 3.57e-12 5.3e-12 6.76e-12 8.06e-12 9.12e-12 1.01e-11 1.09e-11 1.16e-11 1.29e-11 1.39e-11 1.48e-11 1.55e-11 1.62e-11 1.68e-11 1.71e-11 1.76e-11 1.8e-11 1.83e-11 
05 02 04  08 02 07 1e-14 7e-14 2.5e-13 8.9e-13 1.71e-12 2.57e-12 3.41e-12 4.19e-12 4.9e-12 5.57e-12 6.17e-12 7.23e-12 8.13e-12 8.9e-12 9.58e-12 1.02e-11 1.07e-11 1.12e-11 1.16e-11 1.21e-11 1.25e-11 
05 02 04  08 02 06 1e-14 6e-14 2.1e-13 7.6e-13 1.46e-12 2.19e-12 2.91e-12 3.58e-12 4.21e-12 4.79e-12 5.33e-12 6.31e-12 7.16e-12 7.94e-12 8.65e-12 9.28e-12 9.88e-12 1.04e-11 1.09e-11 1.14e-11 1.19e-11 
05 02 04  09 02 08 0 1e-14 3e-14 1.8e-13 4.3e-13 7.4e-13 1.08e-12 1.43e-12 1.78e-12 2.12e-12 2.46e-12 3.12e-12 3.77e-12 4.4e-12 5.03e-12 5.62e-12 6.2e-12 6.76e-12 7.31e-12 7.82e-12 8.32e-12 
05 02 04  09 02 07 0 1e-14 5e-14 2.8e-13 6.9e-13 1.22e-12 1.79e-12 2.37e-12 2.94e-12 3.5e-12 4.04e-12 5.04e-12 5.96e-12 6.81e-12 7.59e-12 8.31e-12 8.98e-12 9.61e-12 1.02e-11 1.07e-11 1.12e-11 
05 02 04  10 02 09 0 0 1e-14 9e-14 2.9e-13 6e-13 9.8e-13 1.4e-12 1.84e-12 2.29e-12 2.74e-12 3.62e-12 4.46e-12 5.26e-12 6.03e-12 6.77e-12 7.48e-12 8.17e-12 8.82e-12 9.47e-12 1.01e-11 
05 02 04  10 02 08 0 0 0 3e-14 1.1e-13 2.3e-13 3.9e-13 5.7e-13 7.6e-13 9.5e-13 1.15e-12 1.55e-12 1.94e-12 2.32e-12 2.7e-12 3.07e-12 3.44e-12 3.8e-12 4.17e-12 4.53e-12 4.9e-12 
05 02 04  11 02 10 0 0 0 1e-14 7e-14 1.6e-13 3e-13 4.8e-13 6.7e-13 8.7e-13 1.08e-12 1.5e-12 1.9e-12 2.29e-12 2.66e-12 3.02e-12 3.36e-12 3.68e-12 3.99e-12 4.29e-12 4.59e-12 
05 02 04  11 02 09 0 0 0 1e-14 3e-14 8e-14 1.5e-13 2.4e-13 3.5e-13 4.7e-13 5.9e-13 8.7e-13 1.15e-12 1.46e-12 1.77e-12 2.09e-12 2.42e-12 2.76e-12 3.09e-12 3.44e-12 3.79e-12 
05 02 04  04 04 01 0 0 0 4e-14 1e-13 2e-13 3.1e-13 4.3e-13 5.6e-13 6.9e-13 8.2e-13 1.08e-12 1.33e-12 1.58e-12 1.82e-12 2.06e-12 2.28e-12 2.51e-12 2.71e-12 2.92e-12 3.11e-12 
05 02 04  04 04 00 0 0 0 2e-14 7e-14 1.4e-13 2.2e-13 3.1e-13 4.1e-13 5.1e-13 6.1e-13 8e-13 9.8e-13 1.15e-12 1.32e-12 1.47e-12 1.61e-12 1.75e-12 1.88e-12 2e-12 2.12e-12 
05 02 04  05 04 02 0 0 0 1e-14 5e-14 1.1e-13 2e-13 3e-13 4.1e-13 5.2e-13 6.4e-13 8.8e-13 1.13e-12 1.36e-12 1.6e-12 1.83e-12 2.07e-12 2.3e-12 2.54e-12 2.78e-12 3.03e-12 
05 02 04  05 04 01 0 0 0 2e-14 6e-14 1.4e-13 2.4e-13 3.5e-13 4.8e-13 6.1e-13 7.4e-13 1.01e-12 1.28e-12 1.54e-12 1.79e-12 2.05e-12 2.29e-12 2.53e-12 2.77e-12 3e-12 3.23e-12 
05 02 04  06 04 03 0 0 0 1e-14 3e-14 7e-14 1.3e-13 2.1e-13 2.9e-13 3.9e-13 4.9e-13 7.2e-13 9.6e-13 1.2e-12 1.44e-12 1.69e-12 1.93e-12 2.18e-12 2.41e-12 2.64e-12 2.87e-12 
05 02 04  06 04 02 0 0 0 1e-14 4e-14 1e-13 1.9e-13 3.1e-13 4.4e-13 5.9e-13 7.4e-13 1.08e-12 1.43e-12 1.79e-12 2.15e-12 2.51e-12 2.87e-12 3.21e-12 3.55e-12 3.89e-12 4.21e-12 
05 02 04  07 04 04 0 0 0 1e-14 3e-14 9e-14 1.7e-13 2.9e-13 4.2e-13 5.8e-13 7.6e-13 1.14e-12 1.54e-12 1.97e-12 2.39e-12 2.81e-12 3.23e-12 3.64e-12 4.04e-12 4.42e-12 4.8e-12 
05 02 04  07 04 03 0 0 0 0 1e-14 3e-14 6e-14 1e-13 1.5e-13 2.1e-13 2.7e-13 4e-13 5.5e-13 6.9e-13 8.4e-13 9.9e-13 1.14e-12 1.3e-12 1.45e-12 1.6e-12 1.75e-12 
05 02 03  00 00 00 1.29e-12 1.39e-12 1.48e-12 1.6e-12 1.67e-12 1.72e-12 1.75e-12 1.78e-12 1.81e-12 1.83e-12 1.85e-12 1.88e-12 1.92e-12 1.96e-12 1.99e-12 2.03e-12 2.06e-12 2.09e-12 2.13e-12 2.16e-12 2.19e-12 
05 02 03  01 00 01 3.17e-12 2.95e-12 2.76e-12 2.5e-12 2.36e-12 2.3e-12 2.28e-12 2.29e-12 2.32e-12 2.37e-12 2.42e-12 2.54e-12 2.67e-12 2.8e-12 2.93e-12 3.06e-12 3.19e-12 3.3e-12 3.42e-12 3.53e-12 3.63e-12 
05 02 03  02 00 02 5.8e-12 5.46e-12 5.17e-12 4.8e-12 4.62e-12 4.54e-12 4.53e-12 4.54e-12 4.58e-12 4.63e-12 4.68e-12 4.8e-12 4.92e-12 5.05e-12 5.17e-12 5.3e-12 5.42e-12 5.55e-12 5.68e-12 5.8e-12 5.93e-12 
05 02 03  03 00 03 5.74e-12 5.45e-12 5.17e-12 4.77e-12 4.56e-12 4.46e-12 4.42e-12 4.43e-12 4.47e-12 4.53e-12 4.6e-12 4.75e-12 4.92e-12 5.09e-12 5.25e-12 5.42e-12 5.57e-12 5.73e-12 5.87e-12 6.01e-12 6.14e-12 
05 02 03  04 00 04 5.39e-12 5.29e-12 5.16e-12 4.9e-12 4.7e-12 4.56e-12 4.46e-12 4.39e-12 4.36e-12 4.34e-12 4.33e-12 4.36e-12 4.4e-12 4.44e-12 4.5e-12 4.55e-12 4.6e-12 4.64e-12 4.68e-12 4.72e-12 4.76e-12 
05 02 03  05 00 05 1.15e-11 1.15e-11 1.16e-11 1.18e-11 1.21e-11 1.25e-11 1.29e-11 1.33e-11 1.38e-11 1.42e-11 1.46e-11 1.55e-11 1.63e-11 1.71e-11 1.78e-11 1.85e-11 1.92e-11 1.98e-11 2.04e-11 2.1e-11 2.15e-11 
05 02 03  06 00 06 2.07e-11 2.03e-11 1.99e-11 1.93e-11 1.9e-11 1.88e-11 1.87e-11 1.87e-11 1.86e-11 1.86e-11 1.87e-11 1.87e-11 1.88e-11 1.89e-11 1.9e-11 1.92e-11 1.93e-11 1.94e-11 1.95e-11 1.96e-11 1.97e-11 
05 02 03  07 00 07 2.17e-11 2.01e-11 1.87e-11 1.67e-11 1.54e-11 1.46e-11 1.4e-11 1.36e-11 1.33e-11 1.3e-11 1.28e-11 1.25e-11 1.23e-11 1.21e-11 1.2e-11 1.19e-11 1.19e-11 1.18e-11 1.18e-11 1.18e-11 1.19e-11 
05 02 03  08 00 08 1.71e-12 3.96e-12 6e-12 8.98e-12 1.09e-11 1.21e-11 1.3e-11 1.36e-11 1.4e-11 1.44e-11 1.46e-11 1.49e-11 1.51e-11 1.52e-11 1.53e-11 1.54e-11 1.54e-11 1.54e-11 1.54e-11 1.55e-11 1.55e-11 
05 02 03  09 00 09 3e-14 2.1e-13 5.3e-13 1.35e-12 2.16e-12 2.87e-12 3.47e-12 3.97e-12 4.39e-12 4.75e-12 5.06e-12 5.57e-12 5.98e-12 6.32e-12 6.61e-12 6.88e-12 7.14e-12 7.38e-12 7.62e-12 7.86e-12 8.09e-12 
05 02 03  10 00 10 0 2e-14 8e-14 3.9e-13 8.6e-13 1.39e-12 1.92e-12 2.42e-12 2.88e-12 3.31e-12 3.7e-12 4.39e-12 4.97e-12 5.47e-12 5.9e-12 6.27e-12 6.6e-12 6.9e-12 7.16e-12 7.4e-12 7.61e-12 
05 02 03  11 00 11 0 0 1e-14 5e-14 1.5e-13 3e-13 4.8e-13 6.8e-13 8.9e-13 1.1e-12 1.32e-12 1.74e-12 2.15e-12 2.54e-12 2.91e-12 3.28e-12 3.63e-12 3.98e-12 4.32e-12 4.66e-12 4.99e-12 
05 02 03  12 00 12 0 0 0 1e-14 3e-14 7e-14 1.3e-13 2.1e-13 3.1e-13 4.3e-13 5.5e-13 8.2e-13 1.1e-12 1.39e-12 1.67e-12 1.94e-12 2.21e-12 2.45e-12 2.69e-12 2.91e-12 3.12e-12 
05 02 03  02 02 01 2.84e-12 2.74e-12 2.68e-12 2.67e-12 2.76e-12 2.91e-12 3.08e-12 3.27e-12 3.46e-12 3.66e-12 3.85e-12 4.24e-12 4.62e-12 4.98e-12 5.33e-12 5.66e-12 5.97e-12 6.26e-12 6.53e-12 6.78e-12 7.02e-12 
05 02 03  02 02 00 3.37e-12 3.57e-12 3.75e-12 4.07e-12 4.33e-12 4.55e-12 4.76e-12 4.95e-12 5.12e-12 5.27e-12 5.41e-12 5.66e-12 5.87e-12 6.04e-12 6.2e-12 6.33e-12 6.45e-12 6.56e-12 6.66e-12 6.75e-12 6.84e-12 
05 02 03  03 02 02 1.2e-11 1.13e-11 1.08e-11 1.01e-11 9.76e-12 9.66e-12 9.67e-12 9.74e-12 9.85e-12 9.96e-12 1.01e-11 1.03e-11 1.06e-11 1.08e-11 1.09e-11 1.11e-11 1.12e-11 1.13e-11 1.14e-11 1.15e-11 1.16e-11 
05 02 03  03 02 01 3.78e-12 4.39e-12 5.04e-12 6.29e-12 7.45e-12 8.5e-12 9.46e-12 1.03e-11 1.11e-11 1.18e-11 1.25e-11 1.36e-11 1.46e-11 1.54e-11 1.62e-11 1.68e-11 1.74e-11 1.8e-11 1.85e-11 1.9e-11 1.94e-11 
05 02 03  04 02 03 1.03e-11 1.07e-11 1.1e-11 1.14e-11 1.19e-11 1.24e-11 1.28e-11 1.32e-11 1.36e-11 1.4e-11 1.44e-11 1.51e-11 1.57e-11 1.63e-11 1.68e-11 1.73e-11 1.78e-11 1.82e-11 1.86e-11 1.9e-11 1.94e-11 
05 02 03  04 02 02 4.55e-11 4.58e-11 4.6e-11 4.64e-11 4.68e-11 4.71e-11 4.73e-11 4.75e-11 4.76e-11 4.78e-11 4.79e-11 4.8e-11 4.81e-11 4.82e-11 4.83e-11 4.83e-11 4.83e-11 4.83e-11 4.83e-11 4.83e-11 4.83e-11 
05 02 03  05 02 04 2.25e-11 2.2e-11 2.12e-11 2e-11 1.92e-11 1.88e-11 1.85e-11 1.84e-11 1.83e-11 1.83e-11 1.83e-11 1.84e-11 1.85e-11 1.87e-11 1.89e-11 1.9e-11 1.92e-11 1.93e-11 1.95e-11 1.96e-11 1.98e-11 
05 02 03  05 02 03 0 0 0 0 0 0 0 0 0 0 0 0 0 0 0 0 0 0 0 0 0 
05 02 03  06 02 05 5.4e-13 1.26e-12 2.02e-12 3.43e-12 4.7e-12 5.84e-12 6.86e-12 7.79e-12 8.62e-12 9.36e-12 1.01e-11 1.13e-11 1.24e-11 1.34e-11 1.42e-11 1.5e-11 1.57e-11 1.63e-11 1.69e-11 1.74e-11 1.8e-11 
05 02 03  06 02 04 5.93e-12 1.22e-11 1.77e-11 2.59e-11 3.16e-11 3.56e-11 3.85e-11 4.08e-11 4.26e-11 4.41e-11 4.53e-11 4.72e-11 4.86e-11 4.98e-11 5.06e-11 5.13e-11 5.19e-11 5.23e-11 5.27e-11 5.3e-11 5.31e-11 
05 02 03  07 02 06 6e-14 2.5e-13 5.3e-13 1.14e-12 1.73e-12 2.29e-12 2.81e-12 3.32e-12 3.79e-12 4.25e-12 4.67e-12 5.44e-12 6.12e-12 6.72e-12 7.27e-12 7.76e-12 8.21e-12 8.63e-12 9.02e-12 9.39e-12 9.74e-12 
05 02 03  07 02 05 1e-13 4.5e-13 9.8e-13 2.21e-12 3.51e-12 4.8e-12 6.07e-12 7.27e-12 8.5e-12 9.63e-12 1.06e-11 1.27e-11 1.44e-11 1.6e-11 1.75e-11 1.87e-11 1.99e-11 2.09e-11 2.19e-11 2.27e-11 2.36e-11 
05 02 03  08 02 07 0 3e-14 1.1e-13 4e-13 7.6e-13 1.16e-12 1.56e-12 1.97e-12 2.37e-12 2.75e-12 3.13e-12 3.87e-12 4.58e-12 5.28e-12 5.93e-12 6.57e-12 7.19e-12 7.77e-12 8.32e-12 8.86e-12 9.37e-12 
05 02 03  08 02 06 1e-14 7e-14 2.6e-13 9.3e-13 1.81e-12 2.76e-12 3.7e-12 4.6e-12 5.45e-12 6.23e-12 6.96e-12 8.25e-12 9.33e-12 1.04e-11 1.11e-11 1.19e-11 1.25e-11 1.31e-11 1.36e-11 1.41e-11 1.46e-11 
05 02 03  09 02 08 0 1e-14 6e-14 3.4e-13 8.1e-13 1.35e-12 1.91e-12 2.47e-12 3.02e-12 3.54e-12 4.05e-12 5.01e-12 5.91e-12 6.74e-12 7.52e-12 8.23e-12 8.9e-12 9.51e-12 1.01e-11 1.06e-11 1.11e-11 
05 02 03  09 02 07 0 0 2e-14 1.4e-13 3.4e-13 6e-13 9e-13 1.21e-12 1.53e-12 1.86e-12 2.2e-12 2.88e-12 3.57e-12 4.25e-12 4.91e-12 5.56e-12 6.18e-12 6.79e-12 7.35e-12 7.89e-12 8.4e-12 
05 02 03  10 02 09 0 0 1e-14 7e-14 2.2e-13 4.4e-13 7e-13 9.8e-13 1.27e-12 1.56e-12 1.84e-12 2.37e-12 2.87e-12 3.33e-12 3.77e-12 4.19e-12 4.58e-12 4.96e-12 5.33e-12 5.7e-12 6.05e-12 
05 02 03  10 02 08 0 0 1e-14 6e-14 1.9e-13 3.9e-13 6.5e-13 9.5e-13 1.27e-12 1.6e-12 1.95e-12 2.64e-12 3.33e-12 4.01e-12 4.66e-12 5.29e-12 5.89e-12 6.46e-12 7.01e-12 7.54e-12 8.06e-12 
05 02 03  11 02 10 0 0 0 2e-14 9e-14 2.2e-13 4.1e-13 6.4e-13 9e-13 1.17e-12 1.45e-12 2.03e-12 2.59e-12 3.13e-12 3.64e-12 4.14e-12 4.62e-12 5.07e-12 5.51e-12 5.93e-12 6.33e-12 
05 02 03  11 02 09 0 0 0 1e-14 4e-14 1e-13 1.9e-13 3e-13 4.3e-13 5.8e-13 7.4e-13 1.08e-12 1.44e-12 1.81e-12 2.19e-12 2.58e-12 2.98e-12 3.37e-12 3.77e-12 4.18e-12 4.58e-12 
05 02 03  04 04 01 0 0 0 2e-14 5e-14 1.1e-13 1.7e-13 2.5e-13 3.3e-13 4.1e-13 4.9e-13 6.5e-13 8.2e-13 9.8e-13 1.14e-12 1.3e-12 1.47e-12 1.64e-12 1.82e-12 2e-12 2.19e-12 
05 02 03  04 04 00 0 0 0 3e-14 8e-14 1.6e-13 2.5e-13 3.5e-13 4.6e-13 5.6e-13 6.8e-13 9e-13 1.12e-12 1.34e-12 1.56e-12 1.77e-12 1.99e-12 2.2e-12 2.42e-12 2.63e-12 2.84e-12 
05 02 03  05 04 02 0 0 0 2e-14 6e-14 1.2e-13 2e-13 2.9e-13 3.8e-13 4.9e-13 5.9e-13 8.1e-13 1.04e-12 1.26e-12 1.5e-12 1.73e-12 1.96e-12 2.19e-12 2.43e-12 2.67e-12 2.91e-12 
05 02 03  05 04 01 0 0 0 1e-14 5e-14 1e-13 1.7e-13 2.6e-13 3.5e-13 4.5e-13 5.6e-13 7.7e-13 9.9e-13 1.2e-12 1.41e-12 1.61e-12 1.8e-12 1.99e-12 2.17e-12 2.35e-12 2.52e-12 
05 02 03  06 04 03 0 0 0 1e-14 5e-14 1.2e-13 2.3e-13 3.5e-13 5e-13 6.6e-13 8.3e-13 1.18e-12 1.54e-12 1.9e-12 2.26e-12 2.61e-12 2.96e-12 3.29e-12 3.61e-12 3.93e-12 4.24e-12 
05 02 03  06 04 02 0 0 0 1e-14 5e-14 1.1e-13 1.9e-13 2.9e-13 4e-13 5.2e-13 6.3e-13 8.8e-13 1.12e-12 1.36e-12 1.59e-12 1.82e-12 2.03e-12 2.24e-12 2.44e-12 2.64e-12 2.83e-12 
05 02 03  07 04 04 0 0 0 0 1e-14 4e-14 8e-14 1.2e-13 1.8e-13 2.3e-13 3e-13 4.3e-13 5.7e-13 7e-13 8.4e-13 9.8e-13 1.11e-12 1.25e-12 1.38e-12 1.53e-12 1.66e-12 
05 02 03  07 04 03 0 0 0 1e-14 4e-14 1.1e-13 2.2e-13 3.7e-13 5.5e-13 7.5e-13 9.7e-13 1.44e-12 1.94e-12 2.45e-12 2.96e-12 3.46e-12 3.96e-12 4.45e-12 4.93e-12 5.4e-12 5.85e-12 
06 02 05  00 00 00 0 0 0 0 0 0 0 0 0 0 0 0 0 0 0 0 0 0 0 0 0 
06 02 05  01 00 01 1.6e-13 1.6e-13 1.6e-13 1.6e-13 1.6e-13 1.7e-13 1.8e-13 1.8e-13 1.9e-13 1.9e-13 1.9e-13 2e-13 2.1e-13 2.2e-13 2.2e-13 2.3e-13 2.4e-13 2.5e-13 2.6e-13 2.7e-13 2.8e-13 
06 02 05  02 00 02 1.68e-12 1.62e-12 1.61e-12 1.63e-12 1.66e-12 1.69e-12 1.72e-12 1.75e-12 1.78e-12 1.81e-12 1.84e-12 1.89e-12 1.93e-12 1.98e-12 2.03e-12 2.07e-12 2.11e-12 2.15e-12 2.2e-12 2.24e-12 2.28e-12 
06 02 05  03 00 03 3.73e-12 3.54e-12 3.45e-12 3.35e-12 3.3e-12 3.28e-12 3.28e-12 3.29e-12 3.31e-12 3.34e-12 3.37e-12 3.45e-12 3.54e-12 3.63e-12 3.72e-12 3.82e-12 3.91e-12 4.01e-12 4.1e-12 4.18e-12 4.27e-12 
06 02 05  04 00 04 1.04e-11 9.94e-12 9.69e-12 9.45e-12 9.34e-12 9.3e-12 9.31e-12 9.35e-12 9.41e-12 9.48e-12 9.55e-12 9.72e-12 9.9e-12 1.01e-11 1.03e-11 1.04e-11 1.06e-11 1.08e-11 1.1e-11 1.11e-11 1.13e-11 
06 02 05  05 00 05 1.31e-11 1.25e-11 1.21e-11 1.18e-11 1.17e-11 1.18e-11 1.2e-11 1.23e-11 1.26e-11 1.28e-11 1.31e-11 1.37e-11 1.42e-11 1.47e-11 1.52e-11 1.57e-11 1.62e-11 1.66e-11 1.71e-11 1.75e-11 1.79e-11 
06 02 05  06 00 06 1.51e-11 1.44e-11 1.39e-11 1.31e-11 1.26e-11 1.22e-11 1.19e-11 1.16e-11 1.15e-11 1.13e-11 1.12e-11 1.1e-11 1.08e-11 1.07e-11 1.07e-11 1.06e-11 1.06e-11 1.06e-11 1.06e-11 1.06e-11 1.07e-11 
06 02 05  07 00 07 6.6e-12 6.53e-12 6.48e-12 6.43e-12 6.45e-12 6.49e-12 6.57e-12 6.65e-12 6.75e-12 6.86e-12 6.97e-12 7.19e-12 7.43e-12 7.66e-12 7.88e-12 8.1e-12 8.3e-12 8.5e-12 8.69e-12 8.88e-12 9.05e-12 
06 02 05  08 00 08 1.3e-11 1.5e-11 1.58e-11 1.6e-11 1.58e-11 1.56e-11 1.54e-11 1.52e-11 1.51e-11 1.5e-11 1.49e-11 1.49e-11 1.48e-11 1.49e-11 1.49e-11 1.5e-11 1.51e-11 1.51e-11 1.52e-11 1.53e-11 1.54e-11 
06 02 05  09 00 09 4.6e-13 1.48e-12 2.63e-12 4.58e-12 5.97e-12 6.95e-12 7.66e-12 8.18e-12 8.59e-12 8.91e-12 9.17e-12 9.57e-12 9.88e-12 1.01e-11 1.04e-11 1.05e-11 1.07e-11 1.09e-11 1.11e-11 1.12e-11 1.14e-11 
06 02 05  10 00 10 1e-14 1.5e-13 5e-13 1.62e-12 2.9e-12 4.08e-12 5.1e-12 5.96e-12 6.67e-12 7.27e-12 7.78e-12 8.59e-12 9.21e-12 9.69e-12 1.01e-11 1.04e-11 1.07e-11 1.1e-11 1.12e-11 1.14e-11 1.16e-11 
06 02 05  11 00 11 0 0 3e-14 1.7e-13 4.3e-13 7.7e-13 1.13e-12 1.49e-12 1.84e-12 2.18e-12 2.49e-12 3.05e-12 3.55e-12 3.99e-12 4.4e-12 4.79e-12 5.16e-12 5.53e-12 5.89e-12 6.25e-12 6.62e-12 
06 02 05  12 00 12 0 0 0 2e-14 9e-14 2e-13 3.6e-13 5.5e-13 7.5e-13 9.7e-13 1.2e-12 1.64e-12 2.07e-12 2.47e-12 2.83e-12 3.17e-12 3.48e-12 3.76e-12 4.02e-12 4.25e-12 4.47e-12 
06 02 05  02 02 01 6.68e-12 6.42e-12 6.3e-12 6.23e-12 6.24e-12 6.28e-12 6.33e-12 6.39e-12 6.45e-12 6.52e-12 6.59e-12 6.74e-12 6.9e-12 7.07e-12 7.24e-12 7.41e-12 7.58e-12 7.75e-12 7.91e-12 8.06e-12 8.21e-12 
06 02 05  02 02 00 9.61e-12 9.41e-12 9.42e-12 9.62e-12 9.86e-12 1.01e-11 1.02e-11 1.04e-11 1.05e-11 1.06e-11 1.07e-11 1.08e-11 1.09e-11 1.1e-11 1.1e-11 1.11e-11 1.11e-11 1.11e-11 1.11e-11 1.11e-11 1.11e-11 
06 02 05  03 02 02 8.98e-12 8.64e-12 8.48e-12 8.42e-12 8.52e-12 8.7e-12 8.91e-12 9.13e-12 9.35e-12 9.57e-12 9.77e-12 1.01e-11 1.05e-11 1.08e-11 1.1e-11 1.13e-11 1.15e-11 1.16e-11 1.18e-11 1.19e-11 1.21e-11 
06 02 05  03 02 01 5.92e-12 5.57e-12 5.36e-12 5.18e-12 5.2e-12 5.3e-12 5.45e-12 5.61e-12 5.79e-12 5.97e-12 6.15e-12 6.49e-12 6.82e-12 7.13e-12 7.41e-12 7.68e-12 7.92e-12 8.14e-12 8.34e-12 8.53e-12 8.69e-12 
06 02 05  04 02 03 6.48e-12 6.39e-12 6.42e-12 6.74e-12 7.28e-12 7.93e-12 8.62e-12 9.32e-12 1e-11 1.07e-11 1.13e-11 1.25e-11 1.35e-11 1.44e-11 1.53e-11 1.6e-11 1.67e-11 1.73e-11 1.79e-11 1.84e-11 1.89e-11 
06 02 05  04 02 02 4.79e-12 4.69e-12 4.67e-12 4.78e-12 5e-12 5.28e-12 5.59e-12 5.89e-12 6.19e-12 6.48e-12 6.75e-12 7.23e-12 7.65e-12 8.02e-12 8.35e-12 8.65e-12 8.93e-12 9.2e-12 9.45e-12 9.69e-12 9.93e-12 
06 02 05  05 02 04 3.87e-11 3.97e-11 4.06e-11 4.17e-11 4.23e-11 4.27e-11 4.28e-11 4.3e-11 4.3e-11 4.31e-11 4.31e-11 4.32e-11 4.33e-11 4.34e-11 4.35e-11 4.36e-11 4.37e-11 4.38e-11 4.38e-11 4.38e-11 4.38e-11 
06 02 05  05 02 03 3.74e-12 4.33e-12 4.87e-12 5.84e-12 6.71e-12 7.51e-12 8.23e-12 8.89e-12 9.48e-12 1e-11 1.05e-11 1.14e-11 1.22e-11 1.29e-11 1.35e-11 1.41e-11 1.46e-11 1.51e-11 1.55e-11 1.59e-11 1.63e-11 
06 02 05  06 02 05 0 0 0 0 0 0 0 0 0 0 0 0 0 0 0 0 0 0 0 0 0 
06 02 05  06 02 04 9.35e-12 1.05e-11 1.12e-11 1.19e-11 1.22e-11 1.25e-11 1.28e-11 1.3e-11 1.32e-11 1.34e-11 1.36e-11 1.39e-11 1.42e-11 1.45e-11 1.47e-11 1.49e-11 1.52e-11 1.54e-11 1.56e-11 1.58e-11 1.6e-11 
06 02 05  07 02 06 4.1e-12 9.38e-12 1.43e-11 2.21e-11 2.75e-11 3.14e-11 3.42e-11 3.64e-11 3.81e-11 3.94e-11 4.05e-11 4.21e-11 4.33e-11 4.42e-11 4.49e-11 4.54e-11 4.59e-11 4.64e-11 4.66e-11 4.7e-11 4.72e-11 
06 02 05  07 02 05 8.1e-13 1.84e-12 2.8e-12 4.37e-12 5.58e-12 6.59e-12 7.44e-12 8.22e-12 8.84e-12 9.5e-12 1e-11 1.1e-11 1.19e-11 1.27e-11 1.34e-11 1.41e-11 1.47e-11 1.52e-11 1.57e-11 1.63e-11 1.67e-11 
06 02 05  08 02 07 4e-14 2.5e-13 6.3e-13 1.62e-12 2.75e-12 3.91e-12 5.09e-12 6.25e-12 7.4e-12 8.55e-12 9.68e-12 1.17e-11 1.37e-11 1.54e-11 1.69e-11 1.84e-11 1.97e-11 2.09e-11 2.2e-11 2.3e-11 2.39e-11 
06 02 05  08 02 06 8e-14 4.5e-13 1.08e-12 2.67e-12 4.2e-12 5.59e-12 6.82e-12 7.85e-12 8.83e-12 9.71e-12 1.05e-11 1.18e-11 1.3e-11 1.4e-11 1.48e-11 1.55e-11 1.62e-11 1.67e-11 1.72e-11 1.77e-11 1.8e-11 
06 02 05  09 02 08 0 3e-14 1.4e-13 5.9e-13 1.27e-12 2.03e-12 2.8e-12 3.56e-12 4.28e-12 4.96e-12 5.59e-12 6.71e-12 7.69e-12 8.56e-12 9.36e-12 9.99e-12 1.06e-11 1.11e-11 1.16e-11 1.21e-11 1.25e-11 
06 02 05  09 02 07 0 3e-14 1.3e-13 5.2e-13 1.08e-12 1.69e-12 2.3e-12 2.88e-12 3.44e-12 3.97e-12 4.46e-12 5.38e-12 6.21e-12 6.99e-12 7.71e-12 8.4e-12 9.03e-12 9.65e-12 1.02e-11 1.08e-11 1.13e-11 
06 02 05  10 02 09 0 0 1e-14 9e-14 2.5e-13 4.7e-13 7.2e-13 1e-12 1.28e-12 1.58e-12 1.89e-12 2.5e-12 3.12e-12 3.74e-12 4.36e-12 4.98e-12 5.59e-12 6.19e-12 6.78e-12 7.37e-12 7.94e-12 
06 02 05  10 02 08 0 0 2e-14 1.5e-13 4.3e-13 8e-13 1.24e-12 1.7e-12 2.17e-12 2.64e-12 3.1e-12 4e-12 4.86e-12 5.7e-12 6.5e-12 7.29e-12 8.05e-12 8.79e-12 9.52e-12 1.02e-11 1.1e-11 
06 02 05  11 02 10 0 0 0 4e-14 1.5e-13 3.4e-13 5.8e-13 8.6e-13 1.16e-12 1.49e-12 1.81e-12 2.46e-12 3.1e-12 3.71e-12 4.31e-12 4.88e-12 5.41e-12 5.94e-12 6.43e-12 6.9e-12 7.36e-12 
06 02 05  11 02 09 0 0 0 2e-14 7e-14 1.7e-13 3e-13 4.6e-13 6.3e-13 8.3e-13 1.02e-12 1.43e-12 1.85e-12 2.26e-12 2.67e-12 3.08e-12 3.48e-12 3.89e-12 4.28e-12 4.68e-12 5.07e-12 
06 02 05  04 04 01 0 0 1e-14 4e-14 1.1e-13 2e-13 3e-13 4.1e-13 5.2e-13 6.3e-13 7.3e-13 9.3e-13 1.12e-12 1.28e-12 1.44e-12 1.59e-12 1.72e-12 1.85e-12 1.96e-12 2.07e-12 2.18e-12 
06 02 05  04 04 00 0 0 1e-14 8e-14 2e-13 3.4e-13 4.9e-13 6.4e-13 7.9e-13 9.3e-13 1.07e-12 1.32e-12 1.56e-12 1.79e-12 2e-12 2.21e-12 2.42e-12 2.63e-12 2.84e-12 3.05e-12 3.26e-12 
06 02 05  05 04 02 0 0 0 4e-14 1.1e-13 2.2e-13 3.5e-13 5e-13 6.6e-13 8.2e-13 9.8e-13 1.3e-12 1.62e-12 1.93e-12 2.22e-12 2.51e-12 2.8e-12 3.07e-12 3.34e-12 3.6e-12 3.86e-12 
06 02 05  05 04 01 0 0 0 3e-14 9e-14 1.8e-13 2.9e-13 4.2e-13 5.6e-13 7.1e-13 8.5e-13 1.14e-12 1.42e-12 1.69e-12 1.94e-12 2.18e-12 2.41e-12 2.63e-12 2.84e-12 3.06e-12 3.26e-12 
06 02 05  06 04 03 0 0 0 1e-14 4e-14 9e-14 1.6e-13 2.5e-13 3.5e-13 4.7e-13 5.9e-13 8.4e-13 1.11e-12 1.38e-12 1.66e-12 1.93e-12 2.2e-12 2.47e-12 2.73e-12 2.99e-12 3.25e-12 
06 02 05  06 04 02 0 0 0 2e-14 5e-14 1.2e-13 2e-13 3e-13 4.1e-13 5.3e-13 6.6e-13 9.2e-13 1.2e-12 1.47e-12 1.75e-12 2.02e-12 2.28e-12 2.54e-12 2.78e-12 3.02e-12 3.25e-12 
06 02 05  07 04 04 0 0 0 1e-14 2e-14 6e-14 1e-13 1.6e-13 2.2e-13 3e-13 3.8e-13 5.5e-13 7.5e-13 9.6e-13 1.18e-12 1.4e-12 1.62e-12 1.86e-12 2.09e-12 2.32e-12 2.55e-12 
06 02 05  07 04 03 0 0 0 1e-14 3e-14 9e-14 1.6e-13 2.7e-13 3.9e-13 5.4e-13 6.9e-13 1.03e-12 1.41e-12 1.79e-12 2.18e-12 2.57e-12 2.97e-12 3.36e-12 3.75e-12 4.14e-12 4.53e-12 
06 02 04  00 00 00 4e-13 3.8e-13 3.8e-13 3.9e-13 4e-13 4.2e-13 4.3e-13 4.4e-13 4.5e-13 4.7e-13 4.7e-13 5e-13 5.2e-13 5.4e-13 5.6e-13 5.9e-13 6.1e-13 6.4e-13 6.6e-13 6.9e-13 7.2e-13 
06 02 04  01 00 01 2.97e-12 2.85e-12 2.8e-12 2.79e-12 2.82e-12 2.87e-12 2.92e-12 2.98e-12 3.03e-12 3.08e-12 3.12e-12 3.21e-12 3.29e-12 3.37e-12 3.44e-12 3.51e-12 3.58e-12 3.64e-12 3.7e-12 3.76e-12 3.82e-12 
06 02 04  02 00 02 3.3e-12 3.05e-12 2.88e-12 2.67e-12 2.55e-12 2.49e-12 2.47e-12 2.47e-12 2.49e-12 2.52e-12 2.57e-12 2.67e-12 2.78e-12 2.89e-12 3.01e-12 3.13e-12 3.25e-12 3.36e-12 3.47e-12 3.59e-12 3.7e-12 
06 02 04  03 00 03 4.56e-12 4.24e-12 4.02e-12 3.77e-12 3.64e-12 3.58e-12 3.57e-12 3.59e-12 3.64e-12 3.7e-12 3.77e-12 3.93e-12 4.1e-12 4.27e-12 4.43e-12 4.59e-12 4.73e-12 4.87e-12 5e-12 5.11e-12 5.22e-12 
06 02 04  04 00 04 4.27e-12 4.03e-12 3.9e-12 3.81e-12 3.81e-12 3.85e-12 3.9e-12 3.96e-12 4.02e-12 4.08e-12 4.14e-12 4.26e-12 4.37e-12 4.48e-12 4.59e-12 4.69e-12 4.78e-12 4.87e-12 4.96e-12 5.04e-12 5.11e-12 
06 02 04  05 00 05 6.12e-12 5.77e-12 5.55e-12 5.25e-12 5.04e-12 4.89e-12 4.77e-12 4.69e-12 4.62e-12 4.58e-12 4.55e-12 4.52e-12 4.53e-12 4.55e-12 4.59e-12 4.64e-12 4.69e-12 4.74e-12 4.8e-12 4.85e-12 4.9e-12 
06 02 04  06 00 06 1.28e-11 1.24e-11 1.23e-11 1.23e-11 1.26e-11 1.29e-11 1.33e-11 1.37e-11 1.41e-11 1.45e-11 1.49e-11 1.57e-11 1.64e-11 1.7e-11 1.77e-11 1.83e-11 1.88e-11 1.94e-11 1.99e-11 2.04e-11 2.08e-11 
06 02 04  07 00 07 2.14e-11 2.12e-11 2.09e-11 2.06e-11 2.04e-11 2.02e-11 2.01e-11 2e-11 1.99e-11 1.98e-11 1.97e-11 1.96e-11 1.96e-11 1.95e-11 1.95e-11 1.94e-11 1.94e-11 1.94e-11 1.94e-11 1.94e-11 1.95e-11 
06 02 04  08 00 08 9.57e-12 1.11e-11 1.18e-11 1.22e-11 1.22e-11 1.22e-11 1.22e-11 1.21e-11 1.21e-11 1.2e-11 1.2e-11 1.19e-11 1.19e-11 1.19e-11 1.19e-11 1.19e-11 1.2e-11 1.21e-11 1.21e-11 1.22e-11 1.23e-11 
06 02 04  09 00 09 5.8e-13 1.91e-12 3.43e-12 6.1e-12 8.06e-12 9.46e-12 1.05e-11 1.12e-11 1.18e-11 1.23e-11 1.26e-11 1.32e-11 1.35e-11 1.38e-11 1.4e-11 1.41e-11 1.42e-11 1.43e-11 1.44e-11 1.45e-11 1.46e-11 
06 02 04  10 00 10 1e-14 9e-14 2.9e-13 9.3e-13 1.66e-12 2.35e-12 2.95e-12 3.48e-12 3.93e-12 4.33e-12 4.68e-12 5.27e-12 5.76e-12 6.18e-12 6.55e-12 6.88e-12 7.18e-12 7.45e-12 7.71e-12 7.95e-12 8.18e-12 
06 02 04  11 00 11 0 1e-14 3e-14 2.1e-13 5.2e-13 9.2e-13 1.35e-12 1.78e-12 2.21e-12 2.61e-12 3e-12 3.71e-12 4.35e-12 4.91e-12 5.42e-12 5.87e-12 6.28e-12 6.65e-12 6.98e-12 7.28e-12 7.56e-12 
06 02 04  12 00 12 0 0 0 2e-14 9e-14 2e-13 3.5e-13 5.2e-13 7e-13 8.9e-13 1.08e-12 1.47e-12 1.84e-12 2.21e-12 2.56e-12 2.9e-12 3.22e-12 3.54e-12 3.84e-12 4.13e-12 4.41e-12 
06 02 04  02 02 01 4.58e-12 4.37e-12 4.25e-12 4.1e-12 4.04e-12 4.03e-12 4.06e-12 4.11e-12 4.17e-12 4.24e-12 4.32e-12 4.48e-12 4.63e-12 4.77e-12 4.9e-12 5.01e-12 5.11e-12 5.19e-12 5.27e-12 5.33e-12 5.38e-12 
06 02 04  02 02 00 1.02e-12 1.04e-12 1.08e-12 1.19e-12 1.33e-12 1.47e-12 1.61e-12 1.75e-12 1.88e-12 2.02e-12 2.15e-12 2.4e-12 2.64e-12 2.88e-12 3.11e-12 3.33e-12 3.54e-12 3.75e-12 3.95e-12 4.14e-12 4.33e-12 
06 02 04  03 02 02 5.09e-12 4.98e-12 4.98e-12 5.1e-12 5.3e-12 5.52e-12 5.73e-12 5.95e-12 6.16e-12 6.36e-12 6.56e-12 6.95e-12 7.32e-12 7.68e-12 8.03e-12 8.35e-12 8.66e-12 8.95e-12 9.22e-12 9.47e-12 9.7e-12 
06 02 04  03 02 01 3.98e-12 4.03e-12 4.19e-12 4.63e-12 5.09e-12 5.53e-12 5.92e-12 6.28e-12 6.59e-12 6.87e-12 7.13e-12 7.57e-12 7.93e-12 8.25e-12 8.52e-12 8.76e-12 8.98e-12 9.18e-12 9.35e-12 9.51e-12 9.66e-12 
06 02 04  04 02 03 1.11e-11 1.09e-11 1.09e-11 1.11e-11 1.13e-11 1.15e-11 1.18e-11 1.2e-11 1.22e-11 1.24e-11 1.26e-11 1.29e-11 1.32e-11 1.35e-11 1.37e-11 1.39e-11 1.41e-11 1.43e-11 1.44e-11 1.46e-11 1.47e-11 
06 02 04  04 02 02 6.23e-12 6.26e-12 6.43e-12 7.01e-12 7.76e-12 8.6e-12 9.45e-12 1.03e-11 1.11e-11 1.18e-11 1.25e-11 1.38e-11 1.49e-11 1.59e-11 1.67e-11 1.74e-11 1.81e-11 1.87e-11 1.93e-11 1.98e-11 2.03e-11 
06 02 04  05 02 04 8.44e-12 8.8e-12 9.09e-12 9.6e-12 1.01e-11 1.06e-11 1.1e-11 1.15e-11 1.19e-11 1.23e-11 1.27e-11 1.34e-11 1.4e-11 1.46e-11 1.51e-11 1.56e-11 1.6e-11 1.64e-11 1.67e-11 1.71e-11 1.74e-11 
06 02 04  05 02 03 4.08e-11 4.18e-11 4.27e-11 4.41e-11 4.51e-11 4.58e-11 4.62e-11 4.66e-11 4.69e-11 4.71e-11 4.73e-11 4.76e-11 4.78e-11 4.8e-11 4.81e-11 4.82e-11 4.83e-11 4.83e-11 4.83e-11 4.83e-11 4.82e-11 
06 02 04  06 02 05 9.35e-12 1.05e-11 1.12e-11 1.19e-11 1.22e-11 1.25e-11 1.28e-11 1.3e-11 1.32e-11 1.34e-11 1.36e-11 1.39e-11 1.42e-11 1.45e-11 1.47e-11 1.49e-11 1.52e-11 1.54e-11 1.56e-11 1.58e-11 1.6e-11 
06 02 04  06 02 04 0 0 0 0 0 0 0 0 0 0 0 0 0 0 0 0 0 0 0 0 0 
06 02 04  07 02 06 3.7e-13 8.6e-13 1.38e-12 2.37e-12 3.32e-12 4.2e-12 5.03e-12 5.79e-12 6.51e-12 7.18e-12 7.82e-12 8.97e-12 9.98e-12 1.1e-11 1.18e-11 1.26e-11 1.33e-11 1.41e-11 1.47e-11 1.53e-11 1.59e-11 
06 02 04  07 02 05 4.4e-12 9.99e-12 1.52e-11 2.32e-11 2.89e-11 3.3e-11 3.6e-11 3.84e-11 4.03e-11 4.19e-11 4.32e-11 4.53e-11 4.68e-11 4.8e-11 4.91e-11 4.98e-11 5.06e-11 5.12e-11 5.18e-11 5.22e-11 5.26e-11 
06 02 04  08 02 07 2e-14 1.2e-13 2.8e-13 7.1e-13 1.16e-12 1.6e-12 2.03e-12 2.44e-12 2.85e-12 3.24e-12 3.62e-12 4.35e-12 5.04e-12 5.67e-12 6.25e-12 6.8e-12 7.31e-12 7.77e-12 8.19e-12 8.58e-12 8.93e-12 
06 02 04  08 02 06 4e-14 2.4e-13 6.1e-13 1.58e-12 2.69e-12 3.86e-12 5.03e-12 6.18e-12 7.33e-12 8.47e-12 9.52e-12 1.16e-11 1.34e-11 1.51e-11 1.66e-11 1.8e-11 1.93e-11 2.05e-11 2.16e-11 2.27e-11 2.36e-11 
06 02 04  09 02 08 0 2e-14 6e-14 2.5e-13 5.3e-13 8.4e-13 1.16e-12 1.49e-12 1.81e-12 2.12e-12 2.43e-12 3.04e-12 3.61e-12 4.17e-12 4.71e-12 5.24e-12 5.76e-12 6.26e-12 6.74e-12 7.23e-12 7.7e-12 
06 02 04  09 02 07 0 4e-14 1.7e-13 7.3e-13 1.52e-12 2.41e-12 3.32e-12 4.19e-12 5.02e-12 5.81e-12 6.51e-12 7.85e-12 8.99e-12 1e-11 1.1e-11 1.18e-11 1.26e-11 1.33e-11 1.4e-11 1.45e-11 1.51e-11 
06 02 04  10 02 09 0 0 2e-14 1.6e-13 4.4e-13 7.9e-13 1.17e-12 1.56e-12 1.95e-12 2.33e-12 2.69e-12 3.39e-12 4.04e-12 4.64e-12 5.22e-12 5.76e-12 6.27e-12 6.75e-12 7.19e-12 7.61e-12 8e-12 
06 02 04  10 02 08 0 0 1e-14 8e-14 2.3e-13 4.2e-13 6.5e-13 9e-13 1.16e-12 1.42e-12 1.7e-12 2.26e-12 2.84e-12 3.44e-12 4.02e-12 4.62e-12 5.22e-12 5.79e-12 6.36e-12 6.93e-12 7.48e-12 
06 02 04  11 02 10 0 0 0 3e-14 1.3e-13 2.9e-13 5e-13 7.4e-13 9.9e-13 1.25e-12 1.5e-12 1.99e-12 2.46e-12 2.89e-12 3.3e-12 3.68e-12 4.06e-12 4.41e-12 4.76e-12 5.11e-12 5.44e-12 
06 02 04  11 02 09 0 0 0 3e-14 1.1e-13 2.4e-13 4.3e-13 6.5e-13 9e-13 1.16e-12 1.43e-12 1.99e-12 2.57e-12 3.13e-12 3.68e-12 4.22e-12 4.74e-12 5.23e-12 5.71e-12 6.17e-12 6.61e-12 
06 02 04  04 04 01 0 0 1e-14 5e-14 1.3e-13 2.2e-13 3.2e-13 4.3e-13 5.3e-13 6.4e-13 7.4e-13 9.4e-13 1.13e-12 1.33e-12 1.52e-12 1.72e-12 1.92e-12 2.12e-12 2.33e-12 2.53e-12 2.74e-12 
06 02 04  04 04 00 0 0 0 2e-14 5e-14 1e-13 1.5e-13 2e-13 2.6e-13 3.2e-13 3.8e-13 5e-13 6.1e-13 7.2e-13 8.3e-13 9.4e-13 1.06e-12 1.18e-12 1.3e-12 1.43e-12 1.57e-12 
06 02 04  05 04 02 0 0 0 4e-14 1.1e-13 2e-13 3.2e-13 4.4e-13 5.7e-13 6.9e-13 8.1e-13 1.05e-12 1.28e-12 1.5e-12 1.71e-12 1.91e-12 2.11e-12 2.31e-12 2.5e-12 2.69e-12 2.88e-12 
06 02 04  05 04 01 0 0 0 3e-14 9e-14 1.8e-13 2.9e-13 4.1e-13 5.4e-13 6.7e-13 8e-13 1.07e-12 1.33e-12 1.58e-12 1.83e-12 2.06e-12 2.29e-12 2.51e-12 2.72e-12 2.92e-12 3.12e-12 
06 02 04  06 04 03 0 0 0 3e-14 1e-13 2.1e-13 3.5e-13 5.1e-13 6.8e-13 8.6e-13 1.05e-12 1.42e-12 1.79e-12 2.16e-12 2.52e-12 2.86e-12 3.19e-12 3.51e-12 3.82e-12 4.12e-12 4.39e-12 
06 02 04  06 04 02 0 0 0 1e-14 4e-14 1e-13 1.7e-13 2.7e-13 3.7e-13 4.8e-13 6e-13 8.4e-13 1.08e-12 1.32e-12 1.55e-12 1.78e-12 1.99e-12 2.21e-12 2.42e-12 2.62e-12 2.82e-12 
06 02 04  07 04 04 0 0 0 1e-14 6e-14 1.5e-13 2.8e-13 4.4e-13 6.3e-13 8.4e-13 1.06e-12 1.53e-12 2.01e-12 2.49e-12 2.97e-12 3.43e-12 3.88e-12 4.32e-12 4.74e-12 5.15e-12 5.54e-12 
06 02 04  07 04 03 0 0 0 1e-14 3e-14 7e-14 1.2e-13 1.9e-13 2.8e-13 3.7e-13 4.8e-13 7e-13 9.3e-13 1.16e-12 1.39e-12 1.62e-12 1.84e-12 2.05e-12 2.25e-12 2.45e-12 2.64e-12 
07 02 06  00 00 00 0 0 0 0 0 0 0 0 0 0 0 0 0 0 0 0 0 0 0 0 0 
07 02 06  01 00 01 1.4e-13 1.3e-13 1.3e-13 1.3e-13 1.3e-13 1.4e-13 1.4e-13 1.5e-13 1.5e-13 1.6e-13 1.6e-13 1.7e-13 1.8e-13 1.9e-13 2e-13 2.1e-13 2.1e-13 2.2e-13 2.3e-13 2.3e-13 2.4e-13 
07 02 06  02 00 02 6.8e-13 6.5e-13 6.3e-13 6.3e-13 6.3e-13 6.4e-13 6.5e-13 6.6e-13 6.7e-13 6.8e-13 6.9e-13 7e-13 7.2e-13 7.4e-13 7.5e-13 7.7e-13 7.8e-13 8e-13 8.2e-13 8.3e-13 8.4e-13 
07 02 06  03 00 03 2.92e-12 2.78e-12 2.72e-12 2.69e-12 2.7e-12 2.72e-12 2.74e-12 2.77e-12 2.8e-12 2.83e-12 2.86e-12 2.92e-12 2.97e-12 3.03e-12 3.09e-12 3.14e-12 3.2e-12 3.25e-12 3.3e-12 3.35e-12 3.4e-12 
07 02 06  04 00 04 5.31e-12 5e-12 4.83e-12 4.64e-12 4.53e-12 4.47e-12 4.43e-12 4.41e-12 4.4e-12 4.41e-12 4.43e-12 4.49e-12 4.57e-12 4.67e-12 4.78e-12 4.9e-12 5.03e-12 5.15e-12 5.28e-12 5.41e-12 5.54e-12 
07 02 06  05 00 05 1.22e-11 1.14e-11 1.1e-11 1.05e-11 1.02e-11 1.01e-11 9.99e-12 9.93e-12 9.91e-12 9.92e-12 9.94e-12 1e-11 1.01e-11 1.03e-11 1.04e-11 1.06e-11 1.07e-11 1.09e-11 1.11e-11 1.12e-11 1.14e-11 
07 02 06  06 00 06 1.27e-11 1.2e-11 1.15e-11 1.11e-11 1.1e-11 1.11e-11 1.12e-11 1.14e-11 1.17e-11 1.19e-11 1.21e-11 1.26e-11 1.31e-11 1.36e-11 1.4e-11 1.45e-11 1.49e-11 1.53e-11 1.57e-11 1.61e-11 1.65e-11 
07 02 06  07 00 07 1.45e-11 1.38e-11 1.32e-11 1.24e-11 1.19e-11 1.14e-11 1.11e-11 1.09e-11 1.07e-11 1.05e-11 1.04e-11 1.02e-11 1.01e-11 9.99e-12 9.96e-12 9.96e-12 9.98e-12 1e-11 1.01e-11 1.01e-11 1.02e-11 
07 02 06  08 00 08 5.39e-12 5.44e-12 5.51e-12 5.63e-12 5.77e-12 5.91e-12 6.05e-12 6.2e-12 6.35e-12 6.5e-12 6.64e-12 6.93e-12 7.2e-12 7.47e-12 7.73e-12 7.98e-12 8.22e-12 8.46e-12 8.7e-12 8.93e-12 9.17e-12 
07 02 06  09 00 09 6.13e-12 8.9e-12 1.05e-11 1.22e-11 1.28e-11 1.31e-11 1.33e-11 1.34e-11 1.35e-11 1.35e-11 1.36e-11 1.37e-11 1.38e-11 1.39e-11 1.41e-11 1.42e-11 1.43e-11 1.44e-11 1.46e-11 1.47e-11 1.49e-11 
07 02 06  10 00 10 1.6e-13 7.6e-13 1.61e-12 3.36e-12 4.79e-12 5.87e-12 6.7e-12 7.33e-12 7.83e-12 8.23e-12 8.57e-12 9.11e-12 9.53e-12 9.89e-12 1.02e-11 1.05e-11 1.08e-11 1.1e-11 1.12e-11 1.14e-11 1.16e-11 
07 02 06  11 00 11 0 5e-14 2.2e-13 9.3e-13 1.87e-12 2.85e-12 3.75e-12 4.55e-12 5.25e-12 5.86e-12 6.39e-12 7.26e-12 7.95e-12 8.49e-12 8.95e-12 9.33e-12 9.65e-12 9.93e-12 1.02e-11 1.04e-11 1.06e-11 
07 02 06  12 00 12 0 0 1e-14 9e-14 2.9e-13 5.6e-13 8.7e-13 1.2e-12 1.53e-12 1.85e-12 2.14e-12 2.69e-12 3.17e-12 3.58e-12 3.96e-12 4.29e-12 4.6e-12 4.88e-12 5.15e-12 5.41e-12 5.65e-12 
07 02 06  02 02 01 6.18e-12 6.03e-12 6.07e-12 6.32e-12 6.61e-12 6.88e-12 7.12e-12 7.34e-12 7.53e-12 7.7e-12 7.86e-12 8.14e-12 8.38e-12 8.58e-12 8.76e-12 8.92e-12 9.07e-12 9.19e-12 9.3e-12 9.39e-12 9.47e-12 
07 02 06  02 02 00 4.26e-12 4.08e-12 4.01e-12 4.01e-12 4.06e-12 4.12e-12 4.17e-12 4.22e-12 4.26e-12 4.3e-12 4.33e-12 4.38e-12 4.43e-12 4.47e-12 4.51e-12 4.56e-12 4.6e-12 4.65e-12 4.7e-12 4.75e-12 4.8e-12 
07 02 06  03 02 02 5.94e-12 5.6e-12 5.4e-12 5.19e-12 5.11e-12 5.08e-12 5.09e-12 5.12e-12 5.17e-12 5.23e-12 5.31e-12 5.47e-12 5.65e-12 5.84e-12 6.02e-12 6.2e-12 6.38e-12 6.55e-12 6.7e-12 6.85e-12 6.99e-12 
07 02 06  03 02 01 1e-11 9.52e-12 9.25e-12 8.95e-12 8.81e-12 8.78e-12 8.81e-12 8.88e-12 8.98e-12 9.09e-12 9.22e-12 9.47e-12 9.73e-12 9.97e-12 1.02e-11 1.04e-11 1.06e-11 1.08e-11 1.09e-11 1.11e-11 1.12e-11 
07 02 06  04 02 03 7.81e-12 7.52e-12 7.42e-12 7.45e-12 7.6e-12 7.79e-12 7.99e-12 8.19e-12 8.4e-12 8.59e-12 8.78e-12 9.14e-12 9.47e-12 9.78e-12 1.01e-11 1.03e-11 1.05e-11 1.07e-11 1.09e-11 1.11e-11 1.12e-11 
07 02 06  04 02 02 4.32e-12 4.08e-12 3.95e-12 3.88e-12 3.94e-12 4.08e-12 4.24e-12 4.43e-12 4.62e-12 4.82e-12 5.03e-12 5.43e-12 5.84e-12 6.22e-12 6.59e-12 6.95e-12 7.28e-12 7.59e-12 7.88e-12 8.15e-12 8.4e-12 
07 02 06  05 02 04 6.95e-12 6.73e-12 6.69e-12 6.96e-12 7.48e-12 8.13e-12 8.84e-12 9.56e-12 1.03e-11 1.1e-11 1.16e-11 1.29e-11 1.4e-11 1.5e-11 1.59e-11 1.67e-11 1.74e-11 1.81e-11 1.88e-11 1.94e-11 1.99e-11 
07 02 06  05 02 03 3.91e-12 3.78e-12 3.74e-12 3.79e-12 3.95e-12 4.16e-12 4.4e-12 4.66e-12 4.91e-12 5.16e-12 5.39e-12 5.82e-12 6.21e-12 6.55e-12 6.86e-12 7.14e-12 7.4e-12 7.65e-12 7.88e-12 8.1e-12 8.31e-12 
07 02 06  06 02 05 4.1e-11 4.15e-11 4.22e-11 4.33e-11 4.4e-11 4.44e-11 4.46e-11 4.47e-11 4.48e-11 4.48e-11 4.48e-11 4.47e-11 4.47e-11 4.46e-11 4.46e-11 4.45e-11 4.45e-11 4.45e-11 4.44e-11 4.44e-11 4.44e-11 
07 02 06  06 02 04 3.67e-12 3.81e-12 4.05e-12 4.65e-12 5.3e-12 5.94e-12 6.55e-12 7.12e-12 7.66e-12 8.17e-12 8.65e-12 9.53e-12 1.03e-11 1.11e-11 1.17e-11 1.23e-11 1.29e-11 1.35e-11 1.4e-11 1.45e-11 1.49e-11 
07 02 06  07 02 06 0 0 0 0 0 0 0 0 0 0 0 0 0 0 0 0 0 0 0 0 0 
07 02 06  07 02 05 6.72e-12 7.69e-12 8.31e-12 9.07e-12 9.56e-12 9.92e-12 1.02e-11 1.05e-11 1.07e-11 1.09e-11 1.12e-11 1.16e-11 1.19e-11 1.22e-11 1.26e-11 1.28e-11 1.31e-11 1.34e-11 1.36e-11 1.38e-11 1.4e-11 
07 02 06  08 02 07 3.09e-12 7.89e-12 1.27e-11 2.06e-11 2.63e-11 3.04e-11 3.35e-11 3.59e-11 3.77e-11 3.92e-11 4.04e-11 4.22e-11 4.35e-11 4.45e-11 4.54e-11 4.6e-11 4.66e-11 4.71e-11 4.75e-11 4.79e-11 4.82e-11 
07 02 06  08 02 06 5.5e-13 1.4e-12 2.24e-12 3.63e-12 4.72e-12 5.62e-12 6.37e-12 7.03e-12 7.62e-12 8.16e-12 8.66e-12 9.52e-12 1.03e-11 1.1e-11 1.17e-11 1.24e-11 1.31e-11 1.37e-11 1.44e-11 1.5e-11 1.56e-11 
07 02 06  09 02 08 2e-14 1.5e-13 4.1e-13 1.22e-12 2.21e-12 3.29e-12 4.41e-12 5.53e-12 6.69e-12 7.79e-12 8.88e-12 1.1e-11 1.3e-11 1.49e-11 1.65e-11 1.81e-11 1.95e-11 2.08e-11 2.2e-11 2.31e-11 2.41e-11 
07 02 06  09 02 07 4e-14 3e-13 8.1e-13 2.15e-12 3.56e-12 4.83e-12 5.98e-12 6.99e-12 7.9e-12 8.71e-12 9.44e-12 1.07e-11 1.19e-11 1.28e-11 1.38e-11 1.45e-11 1.53e-11 1.58e-11 1.64e-11 1.69e-11 1.74e-11 
07 02 06  10 02 09 0 2e-14 8e-14 4e-13 9.3e-13 1.59e-12 2.29e-12 3e-12 3.69e-12 4.34e-12 4.96e-12 6.1e-12 7.09e-12 8e-12 8.7e-12 9.43e-12 1e-11 1.06e-11 1.1e-11 1.15e-11 1.19e-11 
07 02 06  10 02 08 0 1e-14 7e-14 3.4e-13 7.8e-13 1.28e-12 1.79e-12 2.29e-12 2.76e-12 3.21e-12 3.63e-12 4.4e-12 5.1e-12 5.74e-12 6.36e-12 6.94e-12 7.49e-12 8.03e-12 8.55e-12 9.07e-12 9.56e-12 
07 02 06  11 02 10 0 0 1e-14 5e-14 1.5e-13 3e-13 4.8e-13 6.8e-13 8.9e-13 1.11e-12 1.33e-12 1.78e-12 2.25e-12 2.73e-12 3.2e-12 3.69e-12 4.17e-12 4.65e-12 5.13e-12 5.61e-12 6.09e-12 
07 02 06  11 02 09 0 0 1e-14 9e-14 2.7e-13 5.5e-13 8.8e-13 1.24e-12 1.62e-12 2e-12 2.38e-12 3.1e-12 3.78e-12 4.42e-12 5.02e-12 5.57e-12 6.1e-12 6.6e-12 7.08e-12 7.53e-12 7.97e-12 
07 02 06  04 04 01 0 1e-14 4e-14 1.7e-13 3.5e-13 5.5e-13 7.6e-13 9.5e-13 1.14e-12 1.31e-12 1.48e-12 1.78e-12 2.04e-12 2.28e-12 2.5e-12 2.7e-12 2.88e-12 3.05e-12 3.22e-12 3.37e-12 3.52e-12 
07 02 06  04 04 00 0 1e-14 3e-14 1.1e-13 2.2e-13 3.5e-13 4.9e-13 6.3e-13 7.6e-13 8.8e-13 1e-12 1.2e-12 1.39e-12 1.55e-12 1.69e-12 1.82e-12 1.94e-12 2.04e-12 2.13e-12 2.22e-12 2.3e-12 
07 02 06  05 04 02 0 0 1e-14 4e-14 1.1e-13 2.2e-13 3.4e-13 4.8e-13 6.2e-13 7.6e-13 9e-13 1.18e-12 1.44e-12 1.68e-12 1.91e-12 2.12e-12 2.31e-12 2.49e-12 2.66e-12 2.81e-12 2.96e-12 
07 02 06  05 04 01 0 0 2e-14 9e-14 2.1e-13 3.6e-13 5.3e-13 7.1e-13 9e-13 1.08e-12 1.26e-12 1.61e-12 1.94e-12 2.26e-12 2.57e-12 2.87e-12 3.16e-12 3.45e-12 3.73e-12 4e-12 4.28e-12 
07 02 06  06 04 03 0 0 0 3e-14 8e-14 1.7e-13 2.7e-13 4e-13 5.3e-13 6.7e-13 8.2e-13 1.13e-12 1.43e-12 1.74e-12 2.04e-12 2.33e-12 2.62e-12 2.9e-12 3.17e-12 3.44e-12 3.69e-12 
07 02 06  06 04 02 0 0 0 2e-14 7e-14 1.3e-13 2.2e-13 3.1e-13 4.1e-13 5.3e-13 6.4e-13 8.8e-13 1.11e-12 1.35e-12 1.58e-12 1.81e-12 2.04e-12 2.26e-12 2.47e-12 2.68e-12 2.89e-12 
07 02 06  07 04 04 0 0 0 1e-14 4e-14 1e-13 1.7e-13 2.5e-13 3.5e-13 4.5e-13 5.5e-13 7.7e-13 1e-12 1.24e-12 1.47e-12 1.71e-12 1.94e-12 2.18e-12 2.42e-12 2.66e-12 2.9e-12 
07 02 06  07 04 03 0 0 0 1e-14 5e-14 1.1e-13 1.9e-13 2.8e-13 3.8e-13 4.9e-13 6.1e-13 8.6e-13 1.11e-12 1.37e-12 1.62e-12 1.86e-12 2.11e-12 2.34e-12 2.57e-12 2.79e-12 3.01e-12 
07 02 05  00 00 00 4.5e-13 4.3e-13 4.3e-13 4.4e-13 4.7e-13 4.9e-13 5.2e-13 5.4e-13 5.7e-13 5.9e-13 6e-13 6.4e-13 6.7e-13 6.9e-13 7.1e-13 7.3e-13 7.5e-13 7.6e-13 7.7e-13 7.9e-13 8e-13 
07 02 05  01 00 01 1.4e-12 1.3e-12 1.25e-12 1.19e-12 1.17e-12 1.16e-12 1.16e-12 1.16e-12 1.18e-12 1.19e-12 1.21e-12 1.25e-12 1.3e-12 1.36e-12 1.41e-12 1.47e-12 1.54e-12 1.6e-12 1.67e-12 1.74e-12 1.82e-12 
07 02 05  02 00 02 3.49e-12 3.29e-12 3.19e-12 3.09e-12 3.05e-12 3.05e-12 3.07e-12 3.11e-12 3.16e-12 3.21e-12 3.27e-12 3.39e-12 3.51e-12 3.63e-12 3.74e-12 3.85e-12 3.95e-12 4.05e-12 4.14e-12 4.23e-12 4.31e-12 
07 02 05  03 00 03 3.46e-12 3.19e-12 3.02e-12 2.82e-12 2.72e-12 2.67e-12 2.65e-12 2.67e-12 2.7e-12 2.75e-12 2.81e-12 2.95e-12 3.11e-12 3.27e-12 3.44e-12 3.6e-12 3.77e-12 3.92e-12 4.07e-12 4.22e-12 4.36e-12 
07 02 05  04 00 04 3.61e-12 3.33e-12 3.15e-12 2.92e-12 2.8e-12 2.73e-12 2.7e-12 2.69e-12 2.71e-12 2.75e-12 2.79e-12 2.9e-12 3.03e-12 3.17e-12 3.31e-12 3.45e-12 3.58e-12 3.71e-12 3.83e-12 3.94e-12 4.04e-12 
07 02 05  05 00 05 4.45e-12 4.22e-12 4.1e-12 4.02e-12 4.01e-12 4.03e-12 4.06e-12 4.1e-12 4.13e-12 4.17e-12 4.2e-12 4.27e-12 4.33e-12 4.41e-12 4.48e-12 4.57e-12 4.65e-12 4.74e-12 4.83e-12 4.92e-12 5.02e-12 
07 02 05  06 00 06 7.83e-12 7.4e-12 7.14e-12 6.79e-12 6.53e-12 6.33e-12 6.17e-12 6.02e-12 5.9e-12 5.8e-12 5.72e-12 5.58e-12 5.5e-12 5.44e-12 5.42e-12 5.42e-12 5.44e-12 5.48e-12 5.54e-12 5.61e-12 5.7e-12 
07 02 05  07 00 07 1.33e-11 1.29e-11 1.28e-11 1.29e-11 1.32e-11 1.35e-11 1.39e-11 1.43e-11 1.47e-11 1.51e-11 1.55e-11 1.62e-11 1.69e-11 1.76e-11 1.82e-11 1.87e-11 1.93e-11 1.98e-11 2.03e-11 2.07e-11 2.12e-11 
07 02 05  08 00 08 2.35e-11 2.33e-11 2.3e-11 2.25e-11 2.21e-11 2.18e-11 2.16e-11 2.14e-11 2.12e-11 2.1e-11 2.09e-11 2.07e-11 2.06e-11 2.04e-11 2.04e-11 2.03e-11 2.02e-11 2.02e-11 2.02e-11 2.02e-11 2.02e-11 
07 02 05  09 00 09 4.28e-12 6.4e-12 7.77e-12 9.32e-12 1.01e-11 1.06e-11 1.09e-11 1.11e-11 1.12e-11 1.13e-11 1.14e-11 1.16e-11 1.17e-11 1.17e-11 1.18e-11 1.19e-11 1.2e-11 1.2e-11 1.21e-11 1.22e-11 1.22e-11 
07 02 05  10 00 10 1.8e-13 8.7e-13 1.87e-12 3.99e-12 5.77e-12 7.17e-12 8.26e-12 9.11e-12 9.8e-12 1.04e-11 1.08e-11 1.16e-11 1.21e-11 1.26e-11 1.3e-11 1.33e-11 1.35e-11 1.38e-11 1.4e-11 1.41e-11 1.43e-11 
07 02 05  11 00 11 0 4e-14 1.5e-13 6e-13 1.21e-12 1.83e-12 2.42e-12 2.95e-12 3.43e-12 3.86e-12 4.25e-12 4.92e-12 5.5e-12 6.02e-12 6.49e-12 6.92e-12 7.32e-12 7.71e-12 8.08e-12 8.44e-12 8.78e-12 
07 02 05  12 00 12 0 0 1e-14 1e-13 3e-13 5.8e-13 9.1e-13 1.26e-12 1.6e-12 1.94e-12 2.26e-12 2.86e-12 3.41e-12 3.9e-12 4.35e-12 4.76e-12 5.13e-12 5.48e-12 5.8e-12 6.11e-12 6.39e-12 
07 02 05  02 02 01 1.57e-12 1.52e-12 1.52e-12 1.56e-12 1.63e-12 1.7e-12 1.77e-12 1.83e-12 1.89e-12 1.95e-12 2.01e-12 2.12e-12 2.24e-12 2.35e-12 2.47e-12 2.59e-12 2.71e-12 2.83e-12 2.95e-12 3.07e-12 3.19e-12 
07 02 05  02 02 00 2.55e-12 2.39e-12 2.31e-12 2.22e-12 2.2e-12 2.22e-12 2.26e-12 2.32e-12 2.38e-12 2.46e-12 2.53e-12 2.69e-12 2.84e-12 2.99e-12 3.13e-12 3.25e-12 3.37e-12 3.48e-12 3.57e-12 3.66e-12 3.74e-12 
07 02 05  03 02 02 5.75e-12 5.58e-12 5.55e-12 5.6e-12 5.69e-12 5.79e-12 5.89e-12 6e-12 6.11e-12 6.21e-12 6.32e-12 6.54e-12 6.75e-12 6.94e-12 7.12e-12 7.28e-12 7.44e-12 7.58e-12 7.71e-12 7.82e-12 7.93e-12 
07 02 05  03 02 01 1.66e-12 1.59e-12 1.59e-12 1.66e-12 1.8e-12 1.96e-12 2.13e-12 2.29e-12 2.46e-12 2.63e-12 2.78e-12 3.08e-12 3.37e-12 3.63e-12 3.87e-12 4.09e-12 4.3e-12 4.5e-12 4.68e-12 4.85e-12 5.01e-12 
07 02 05  04 02 03 5.69e-12 5.54e-12 5.53e-12 5.7e-12 5.94e-12 6.19e-12 6.44e-12 6.66e-12 6.88e-12 7.07e-12 7.26e-12 7.59e-12 7.89e-12 8.17e-12 8.42e-12 8.65e-12 8.87e-12 9.07e-12 9.26e-12 9.43e-12 9.59e-12 
07 02 05  04 02 02 5.61e-12 5.47e-12 5.49e-12 5.74e-12 6.09e-12 6.47e-12 6.85e-12 7.21e-12 7.55e-12 7.86e-12 8.16e-12 8.69e-12 9.16e-12 9.58e-12 9.94e-12 1.03e-11 1.06e-11 1.08e-11 1.11e-11 1.13e-11 1.15e-11 
07 02 05  05 02 04 1.22e-11 1.19e-11 1.19e-11 1.19e-11 1.21e-11 1.23e-11 1.26e-11 1.28e-11 1.3e-11 1.32e-11 1.34e-11 1.38e-11 1.41e-11 1.44e-11 1.46e-11 1.49e-11 1.51e-11 1.52e-11 1.54e-11 1.55e-11 1.56e-11 
07 02 05  05 02 03 6.97e-12 6.87e-12 6.95e-12 7.38e-12 8.01e-12 8.74e-12 9.49e-12 1.02e-11 1.1e-11 1.17e-11 1.23e-11 1.36e-11 1.46e-11 1.56e-11 1.65e-11 1.72e-11 1.79e-11 1.85e-11 1.91e-11 1.96e-11 2.01e-11 
07 02 05  06 02 05 8.13e-12 8.14e-12 8.24e-12 8.55e-12 8.92e-12 9.31e-12 9.69e-12 1.01e-11 1.04e-11 1.08e-11 1.11e-11 1.17e-11 1.23e-11 1.28e-11 1.33e-11 1.38e-11 1.42e-11 1.46e-11 1.5e-11 1.54e-11 1.57e-11 
07 02 05  06 02 04 4.4e-11 4.42e-11 4.46e-11 4.55e-11 4.61e-11 4.66e-11 4.69e-11 4.72e-11 4.74e-11 4.76e-11 4.78e-11 4.81e-11 4.83e-11 4.85e-11 4.87e-11 4.88e-11 4.9e-11 4.91e-11 4.93e-11 4.94e-11 4.95e-11 
07 02 05  07 02 06 6.72e-12 7.69e-12 8.31e-12 9.07e-12 9.56e-12 9.92e-12 1.02e-11 1.05e-11 1.07e-11 1.09e-11 1.12e-11 1.16e-11 1.19e-11 1.22e-11 1.26e-11 1.28e-11 1.31e-11 1.34e-11 1.36e-11 1.38e-11 1.4e-11 
07 02 05  07 02 05 0 0 0 0 0 0 0 0 0 0 0 0 0 0 0 0 0 0 0 0 0 
07 02 05  08 02 07 2.3e-13 6.3e-13 1.07e-12 1.92e-12 2.72e-12 3.46e-12 4.14e-12 4.77e-12 5.35e-12 5.89e-12 6.38e-12 7.29e-12 8.09e-12 8.82e-12 9.49e-12 1.01e-11 1.07e-11 1.12e-11 1.17e-11 1.22e-11 1.27e-11 
07 02 05  08 02 06 3e-12 7.7e-12 1.24e-11 2.02e-11 2.58e-11 2.99e-11 3.31e-11 3.55e-11 3.74e-11 3.9e-11 4.03e-11 4.23e-11 4.37e-11 4.49e-11 4.58e-11 4.66e-11 4.73e-11 4.79e-11 4.84e-11 4.89e-11 4.93e-11 
07 02 05  09 02 08 1e-14 7e-14 1.8e-13 5e-13 8.6e-13 1.23e-12 1.6e-12 1.95e-12 2.3e-12 2.64e-12 2.97e-12 3.6e-12 4.18e-12 4.72e-12 5.22e-12 5.67e-12 6.07e-12 6.45e-12 6.78e-12 7.09e-12 7.37e-12 
07 02 05  09 02 07 2e-14 1.4e-13 3.8e-13 1.11e-12 2.02e-12 3.03e-12 4.1e-12 5.2e-12 6.33e-12 7.4e-12 8.53e-12 1.06e-11 1.26e-11 1.44e-11 1.61e-11 1.77e-11 1.92e-11 2.06e-11 2.19e-11 2.3e-11 2.41e-11 
07 02 05  10 02 09 0 1e-14 3e-14 1.7e-13 3.8e-13 6.4e-13 9.2e-13 1.22e-12 1.52e-12 1.81e-12 2.11e-12 2.7e-12 3.28e-12 3.85e-12 4.43e-12 5.01e-12 5.58e-12 6.17e-12 6.76e-12 7.35e-12 7.95e-12 
07 02 05  10 02 08 0 2e-14 1.1e-13 5.4e-13 1.24e-12 2.06e-12 2.93e-12 3.82e-12 4.65e-12 5.45e-12 6.21e-12 7.59e-12 8.85e-12 9.86e-12 1.09e-11 1.17e-11 1.24e-11 1.31e-11 1.37e-11 1.42e-11 1.47e-11 
07 02 05  11 02 10 0 0 1e-14 8e-14 2.5e-13 4.9e-13 7.7e-13 1.07e-12 1.39e-12 1.7e-12 2.02e-12 2.64e-12 3.24e-12 3.82e-12 4.39e-12 4.94e-12 5.47e-12 5.98e-12 6.47e-12 6.95e-12 7.41e-12 
07 02 05  11 02 09 0 0 1e-14 5e-14 1.6e-13 3.2e-13 5.2e-13 7.3e-13 9.6e-13 1.19e-12 1.43e-12 1.92e-12 2.41e-12 2.9e-12 3.38e-12 3.85e-12 4.31e-12 4.76e-12 5.19e-12 5.61e-12 6.01e-12 
07 02 05  04 04 01 0 0 1e-14 3e-14 7e-14 1.1e-13 1.6e-13 2e-13 2.4e-13 2.8e-13 3.3e-13 4.1e-13 4.8e-13 5.6e-13 6.3e-13 7e-13 7.7e-13 8.4e-13 9.1e-13 9.8e-13 1.05e-12 
07 02 05  04 04 00 0 1e-14 2e-14 9e-14 1.8e-13 2.7e-13 3.7e-13 4.7e-13 5.6e-13 6.4e-13 7.3e-13 8.9e-13 1.03e-12 1.18e-12 1.32e-12 1.47e-12 1.61e-12 1.76e-12 1.91e-12 2.07e-12 2.24e-12 
07 02 05  05 04 02 0 0 2e-14 1.1e-13 2.5e-13 4.3e-13 6.1e-13 8e-13 9.8e-13 1.16e-12 1.33e-12 1.67e-12 1.98e-12 2.29e-12 2.59e-12 2.88e-12 3.17e-12 3.47e-12 3.77e-12 4.07e-12 4.37e-12 
07 02 05  05 04 01 0 0 1e-14 6e-14 1.5e-13 2.7e-13 4e-13 5.3e-13 6.5e-13 7.8e-13 9e-13 1.13e-12 1.35e-12 1.55e-12 1.73e-12 1.91e-12 2.07e-12 2.22e-12 2.36e-12 2.5e-12 2.63e-12 
07 02 05  06 04 03 0 0 1e-14 4e-14 1.2e-13 2.4e-13 3.8e-13 5.5e-13 7.2e-13 9e-13 1.08e-12 1.45e-12 1.81e-12 2.15e-12 2.47e-12 2.78e-12 3.08e-12 3.35e-12 3.62e-12 3.88e-12 4.11e-12 
07 02 05  06 04 02 0 0 0 4e-14 1e-13 2e-13 3.1e-13 4.4e-13 5.8e-13 7.2e-13 8.6e-13 1.15e-12 1.43e-12 1.71e-12 1.98e-12 2.24e-12 2.49e-12 2.73e-12 2.97e-12 3.2e-12 3.42e-12 
07 02 05  07 04 04 0 0 0 3e-14 1e-13 2.1e-13 3.6e-13 5.4e-13 7.2e-13 9.2e-13 1.12e-12 1.54e-12 1.95e-12 2.36e-12 2.75e-12 3.14e-12 3.52e-12 3.88e-12 4.23e-12 4.58e-12 4.91e-12 
07 02 05  07 04 03 0 0 0 1e-14 4e-14 1e-13 1.7e-13 2.6e-13 3.6e-13 4.7e-13 5.9e-13 8.3e-13 1.09e-12 1.34e-12 1.59e-12 1.83e-12 2.07e-12 2.3e-12 2.54e-12 2.76e-12 2.99e-12 
08 02 07  00 00 00 0 0 0 0 0 0 0 0 0 0 0 0 0 0 0 0 0 0 0 0 0 
08 02 07  01 00 01 9e-14 9e-14 8e-14 8e-14 8e-14 8e-14 8e-14 8e-14 8e-14 8e-14 8e-14 9e-14 9e-14 9e-14 9e-14 1e-13 1e-13 1e-13 1e-13 1e-13 1.1e-13 
08 02 07  02 00 02 3.9e-13 3.9e-13 3.9e-13 4e-13 4.1e-13 4.2e-13 4.3e-13 4.4e-13 4.5e-13 4.7e-13 4.8e-13 5e-13 5.2e-13 5.4e-13 5.6e-13 5.8e-13 5.9e-13 6.1e-13 6.2e-13 6.4e-13 6.5e-13 
08 02 07  03 00 03 1.14e-12 1.15e-12 1.16e-12 1.18e-12 1.21e-12 1.22e-12 1.23e-12 1.24e-12 1.25e-12 1.25e-12 1.26e-12 1.28e-12 1.29e-12 1.31e-12 1.34e-12 1.37e-12 1.4e-12 1.44e-12 1.48e-12 1.52e-12 1.56e-12 
08 02 07  04 00 04 3.24e-12 3.26e-12 3.29e-12 3.34e-12 3.37e-12 3.4e-12 3.43e-12 3.45e-12 3.47e-12 3.49e-12 3.52e-12 3.56e-12 3.61e-12 3.66e-12 3.71e-12 3.77e-12 3.82e-12 3.87e-12 3.92e-12 3.96e-12 4.01e-12 
08 02 07  05 00 05 5.5e-12 5.46e-12 5.44e-12 5.39e-12 5.35e-12 5.32e-12 5.3e-12 5.29e-12 5.3e-12 5.31e-12 5.33e-12 5.4e-12 5.5e-12 5.61e-12 5.73e-12 5.87e-12 6.01e-12 6.16e-12 6.31e-12 6.47e-12 6.63e-12 
08 02 07  06 00 06 1.11e-11 1.1e-11 1.08e-11 1.06e-11 1.04e-11 1.03e-11 1.02e-11 1.01e-11 1.01e-11 1.01e-11 1.01e-11 1.02e-11 1.03e-11 1.04e-11 1.06e-11 1.08e-11 1.1e-11 1.12e-11 1.14e-11 1.16e-11 1.18e-11 
08 02 07  07 00 07 9.15e-12 9.26e-12 9.32e-12 9.44e-12 9.59e-12 9.8e-12 1e-11 1.03e-11 1.06e-11 1.08e-11 1.11e-11 1.17e-11 1.22e-11 1.27e-11 1.32e-11 1.37e-11 1.42e-11 1.47e-11 1.51e-11 1.56e-11 1.6e-11 
08 02 07  08 00 08 1.16e-11 1.15e-11 1.13e-11 1.1e-11 1.06e-11 1.03e-11 1.01e-11 9.92e-12 9.77e-12 9.66e-12 9.57e-12 9.46e-12 9.42e-12 9.41e-12 9.43e-12 9.47e-12 9.53e-12 9.59e-12 9.66e-12 9.73e-12 9.81e-12 
08 02 07  09 00 09 5.93e-12 5.9e-12 5.85e-12 5.81e-12 5.85e-12 5.93e-12 6.05e-12 6.18e-12 6.33e-12 6.48e-12 6.65e-12 6.98e-12 7.33e-12 7.67e-12 8.01e-12 8.35e-12 8.68e-12 9.01e-12 9.32e-12 9.63e-12 9.94e-12 
08 02 07  10 00 10 2.55e-12 4.8e-12 6.52e-12 8.7e-12 9.9e-12 1.06e-11 1.11e-11 1.15e-11 1.18e-11 1.2e-11 1.22e-11 1.26e-11 1.29e-11 1.32e-11 1.35e-11 1.38e-11 1.41e-11 1.44e-11 1.46e-11 1.49e-11 1.51e-11 
08 02 07  11 00 11 6e-14 3.7e-13 9.4e-13 2.38e-12 3.74e-12 4.86e-12 5.77e-12 6.5e-12 7.09e-12 7.59e-12 8.01e-12 8.68e-12 9.22e-12 9.68e-12 1.01e-11 1.05e-11 1.08e-11 1.12e-11 1.16e-11 1.19e-11 1.22e-11 
08 02 07  12 00 12 0 2e-14 9e-14 5e-13 1.17e-12 1.93e-12 2.69e-12 3.4e-12 4.05e-12 4.63e-12 5.14e-12 6e-12 6.69e-12 7.24e-12 7.71e-12 8.1e-12 8.43e-12 8.73e-12 8.99e-12 9.23e-12 9.44e-12 
08 02 07  02 02 01 1.93e-12 1.97e-12 2.02e-12 2.11e-12 2.19e-12 2.27e-12 2.33e-12 2.39e-12 2.43e-12 2.47e-12 2.5e-12 2.56e-12 2.6e-12 2.64e-12 2.67e-12 2.71e-12 2.73e-12 2.76e-12 2.79e-12 2.82e-12 2.85e-12 
08 02 07  02 02 00 3.09e-12 3.19e-12 3.32e-12 3.6e-12 3.87e-12 4.1e-12 4.32e-12 4.51e-12 4.68e-12 4.83e-12 4.98e-12 5.23e-12 5.45e-12 5.65e-12 5.83e-12 6e-12 6.16e-12 6.31e-12 6.46e-12 6.6e-12 6.73e-12 
08 02 07  03 02 02 6.07e-12 6.13e-12 6.21e-12 6.37e-12 6.52e-12 6.65e-12 6.78e-12 6.9e-12 7.02e-12 7.13e-12 7.23e-12 7.43e-12 7.62e-12 7.79e-12 7.95e-12 8.1e-12 8.25e-12 8.38e-12 8.51e-12 8.64e-12 8.75e-12 
08 02 07  03 02 01 3.89e-12 3.91e-12 3.93e-12 3.95e-12 3.97e-12 3.99e-12 4e-12 4.02e-12 4.05e-12 4.07e-12 4.1e-12 4.17e-12 4.25e-12 4.34e-12 4.43e-12 4.52e-12 4.62e-12 4.72e-12 4.81e-12 4.91e-12 5.01e-12 
08 02 07  04 02 03 3.85e-12 3.89e-12 3.91e-12 3.95e-12 4.01e-12 4.09e-12 4.18e-12 4.28e-12 4.39e-12 4.5e-12 4.63e-12 4.88e-12 5.14e-12 5.4e-12 5.65e-12 5.89e-12 6.12e-12 6.33e-12 6.53e-12 6.71e-12 6.88e-12 
08 02 07  04 02 02 7.45e-12 7.44e-12 7.42e-12 7.35e-12 7.31e-12 7.29e-12 7.32e-12 7.38e-12 7.46e-12 7.56e-12 7.67e-12 7.91e-12 8.16e-12 8.39e-12 8.62e-12 8.83e-12 9.02e-12 9.2e-12 9.36e-12 9.51e-12 9.64e-12 
08 02 07  05 02 04 6.01e-12 6.14e-12 6.29e-12 6.61e-12 6.93e-12 7.22e-12 7.49e-12 7.73e-12 7.94e-12 8.14e-12 8.31e-12 8.62e-12 8.88e-12 9.11e-12 9.32e-12 9.51e-12 9.68e-12 9.85e-12 1e-11 1.02e-11 1.03e-11 
08 02 07  05 02 03 2.77e-12 2.81e-12 2.85e-12 2.95e-12 3.09e-12 3.26e-12 3.44e-12 3.63e-12 3.83e-12 4.02e-12 4.22e-12 4.62e-12 5.01e-12 5.4e-12 5.77e-12 6.14e-12 6.49e-12 6.83e-12 7.14e-12 7.45e-12 7.74e-12 
08 02 07  06 02 05 6.21e-12 6.42e-12 6.63e-12 7.13e-12 7.79e-12 8.53e-12 9.33e-12 1.01e-11 1.09e-11 1.17e-11 1.25e-11 1.39e-11 1.52e-11 1.63e-11 1.73e-11 1.83e-11 1.91e-11 1.99e-11 2.06e-11 2.12e-11 2.18e-11 
08 02 07  06 02 04 2.83e-12 2.93e-12 2.99e-12 3.13e-12 3.29e-12 3.49e-12 3.72e-12 3.95e-12 4.19e-12 4.44e-12 4.68e-12 5.15e-12 5.6e-12 6.02e-12 6.4e-12 6.76e-12 7.09e-12 7.39e-12 7.66e-12 7.91e-12 8.13e-12 
08 02 07  07 02 06 4.46e-11 4.49e-11 4.53e-11 4.61e-11 4.66e-11 4.69e-11 4.71e-11 4.72e-11 4.72e-11 4.72e-11 4.71e-11 4.7e-11 4.69e-11 4.68e-11 4.68e-11 4.67e-11 4.67e-11 4.67e-11 4.67e-11 4.67e-11 4.67e-11 
08 02 07  07 02 05 3.38e-12 3.59e-12 3.82e-12 4.31e-12 4.83e-12 5.34e-12 5.82e-12 6.27e-12 6.69e-12 7.09e-12 7.45e-12 8.12e-12 8.72e-12 9.27e-12 9.78e-12 1.02e-11 1.07e-11 1.11e-11 1.15e-11 1.19e-11 1.23e-11 
08 02 07  08 02 07 0 0 0 0 0 0 0 0 0 0 0 0 0 0 0 0 0 0 0 0 0 
08 02 07  08 02 06 8.65e-12 8.77e-12 8.79e-12 8.85e-12 8.97e-12 9.14e-12 9.33e-12 9.55e-12 9.77e-12 1e-11 1.02e-11 1.07e-11 1.11e-11 1.15e-11 1.19e-11 1.22e-11 1.25e-11 1.28e-11 1.3e-11 1.32e-11 1.34e-11 
08 02 07  09 02 08 2.47e-12 7e-12 1.18e-11 1.99e-11 2.59e-11 3.02e-11 3.35e-11 3.6e-11 3.79e-11 3.95e-11 4.08e-11 4.27e-11 4.41e-11 4.51e-11 4.59e-11 4.65e-11 4.7e-11 4.75e-11 4.78e-11 4.81e-11 4.83e-11 
08 02 07  09 02 07 4e-13 1.12e-12 1.87e-12 3.13e-12 4.11e-12 4.9e-12 5.58e-12 6.2e-12 6.75e-12 7.27e-12 7.76e-12 8.69e-12 9.55e-12 1.04e-11 1.11e-11 1.18e-11 1.26e-11 1.32e-11 1.39e-11 1.45e-11 1.51e-11 
08 02 07  10 02 09 1e-14 8e-14 2.6e-13 8.8e-13 1.72e-12 2.69e-12 3.72e-12 4.78e-12 5.87e-12 6.97e-12 8.08e-12 1.02e-11 1.22e-11 1.4e-11 1.58e-11 1.75e-11 1.9e-11 2.04e-11 2.17e-11 2.29e-11 2.4e-11 
08 02 07  10 02 08 2e-14 1.7e-13 5e-13 1.51e-12 2.65e-12 3.77e-12 4.78e-12 5.69e-12 6.52e-12 7.27e-12 7.95e-12 9.24e-12 1.03e-11 1.13e-11 1.22e-11 1.3e-11 1.38e-11 1.45e-11 1.52e-11 1.59e-11 1.65e-11 
08 02 07  11 02 10 0 1e-14 4e-14 2.8e-13 7.2e-13 1.29e-12 1.93e-12 2.59e-12 3.25e-12 3.9e-12 4.52e-12 5.65e-12 6.72e-12 7.66e-12 8.46e-12 9.21e-12 9.91e-12 1.05e-11 1.11e-11 1.16e-11 1.21e-11 
08 02 07  11 02 09 0 1e-14 4e-14 2.3e-13 5.6e-13 9.7e-13 1.41e-12 1.84e-12 2.25e-12 2.65e-12 3.03e-12 3.72e-12 4.36e-12 4.95e-12 5.52e-12 6.05e-12 6.57e-12 7.07e-12 7.57e-12 8.05e-12 8.52e-12 
08 02 07  04 04 01 1e-14 4e-14 9e-14 2.4e-13 4.2e-13 6.1e-13 8e-13 9.7e-13 1.14e-12 1.29e-12 1.43e-12 1.69e-12 1.92e-12 2.11e-12 2.29e-12 2.45e-12 2.59e-12 2.73e-12 2.86e-12 2.98e-12 3.1e-12 
08 02 07  04 04 00 1e-14 5e-14 1.3e-13 3.4e-13 5.8e-13 8.3e-13 1.07e-12 1.29e-12 1.5e-12 1.69e-12 1.87e-12 2.19e-12 2.46e-12 2.71e-12 2.94e-12 3.15e-12 3.34e-12 3.53e-12 3.71e-12 3.88e-12 4.05e-12 
08 02 07  05 04 02 0 2e-14 6e-14 1.9e-13 3.6e-13 5.4e-13 7.2e-13 8.9e-13 1.06e-12 1.23e-12 1.38e-12 1.67e-12 1.95e-12 2.2e-12 2.44e-12 2.67e-12 2.88e-12 3.09e-12 3.28e-12 3.47e-12 3.65e-12 
08 02 07  05 04 01 0 1e-14 2e-14 8e-14 1.6e-13 2.5e-13 3.6e-13 4.8e-13 6e-13 7.2e-13 8.4e-13 1.07e-12 1.29e-12 1.51e-12 1.71e-12 1.91e-12 2.1e-12 2.28e-12 2.45e-12 2.62e-12 2.78e-12 
08 02 07  06 04 03 0 0 1e-14 6e-14 1.4e-13 2.5e-13 3.7e-13 5e-13 6.3e-13 7.7e-13 9.1e-13 1.17e-12 1.43e-12 1.68e-12 1.91e-12 2.14e-12 2.36e-12 2.58e-12 2.79e-12 3e-12 3.21e-12 
08 02 07  06 04 02 0 0 2e-14 1e-13 2.2e-13 3.6e-13 5.2e-13 6.8e-13 8.3e-13 9.9e-13 1.14e-12 1.43e-12 1.71e-12 1.96e-12 2.2e-12 2.43e-12 2.64e-12 2.85e-12 3.04e-12 3.23e-12 3.42e-12 
08 02 07  07 04 04 0 0 0 3e-14 9e-14 1.8e-13 2.8e-13 4.1e-13 5.4e-13 6.8e-13 8.1e-13 1.09e-12 1.37e-12 1.64e-12 1.9e-12 2.16e-12 2.4e-12 2.65e-12 2.88e-12 3.11e-12 3.34e-12 
08 02 07  07 04 03 0 0 0 3e-14 9e-14 1.8e-13 2.8e-13 4e-13 5.2e-13 6.5e-13 7.8e-13 1.04e-12 1.3e-12 1.54e-12 1.78e-12 2.01e-12 2.23e-12 2.44e-12 2.64e-12 2.84e-12 3.02e-12 
08 02 06  00 00 00 3.1e-13 3e-13 2.9e-13 2.8e-13 2.8e-13 2.8e-13 2.8e-13 2.8e-13 2.9e-13 3e-13 3.1e-13 3.2e-13 3.4e-13 3.6e-13 3.7e-13 3.9e-13 4e-13 4.2e-13 4.3e-13 4.4e-13 4.5e-13 
08 02 06  01 00 01 7e-13 7.4e-13 7.7e-13 8.2e-13 8.6e-13 9.1e-13 9.7e-13 1.02e-12 1.08e-12 1.13e-12 1.19e-12 1.29e-12 1.38e-12 1.46e-12 1.53e-12 1.6e-12 1.65e-12 1.7e-12 1.75e-12 1.78e-12 1.82e-12 
08 02 06  02 00 02 1.35e-12 1.39e-12 1.42e-12 1.47e-12 1.51e-12 1.54e-12 1.56e-12 1.59e-12 1.61e-12 1.64e-12 1.67e-12 1.74e-12 1.82e-12 1.9e-12 1.98e-12 2.06e-12 2.13e-12 2.21e-12 2.29e-12 2.36e-12 2.43e-12 
08 02 06  03 00 03 2.28e-12 2.33e-12 2.37e-12 2.41e-12 2.44e-12 2.48e-12 2.52e-12 2.57e-12 2.62e-12 2.69e-12 2.75e-12 2.89e-12 3.04e-12 3.18e-12 3.32e-12 3.46e-12 3.59e-12 3.72e-12 3.84e-12 3.95e-12 4.05e-12 
08 02 06  04 00 04 2.59e-12 2.55e-12 2.52e-12 2.46e-12 2.43e-12 2.43e-12 2.46e-12 2.5e-12 2.54e-12 2.6e-12 2.66e-12 2.79e-12 2.93e-12 3.08e-12 3.23e-12 3.39e-12 3.55e-12 3.72e-12 3.9e-12 4.07e-12 4.26e-12 
08 02 06  05 00 05 2.74e-12 2.69e-12 2.65e-12 2.57e-12 2.52e-12 2.48e-12 2.46e-12 2.45e-12 2.46e-12 2.47e-12 2.5e-12 2.57e-12 2.66e-12 2.77e-12 2.9e-12 3.03e-12 3.17e-12 3.31e-12 3.46e-12 3.61e-12 3.76e-12 
08 02 06  06 00 06 3.54e-12 3.66e-12 3.76e-12 3.93e-12 4.07e-12 4.18e-12 4.28e-12 4.37e-12 4.44e-12 4.5e-12 4.57e-12 4.68e-12 4.79e-12 4.9e-12 5e-12 5.11e-12 5.23e-12 5.34e-12 5.46e-12 5.58e-12 5.7e-12 
08 02 06  07 00 07 8.1e-12 8.01e-12 7.94e-12 7.79e-12 7.64e-12 7.49e-12 7.35e-12 7.23e-12 7.12e-12 7.04e-12 6.96e-12 6.85e-12 6.79e-12 6.76e-12 6.76e-12 6.78e-12 6.83e-12 6.89e-12 6.97e-12 7.06e-12 7.17e-12 
08 02 06  08 00 08 1.23e-11 1.23e-11 1.25e-11 1.28e-11 1.32e-11 1.36e-11 1.41e-11 1.45e-11 1.5e-11 1.54e-11 1.58e-11 1.66e-11 1.73e-11 1.8e-11 1.87e-11 1.93e-11 1.98e-11 2.03e-11 2.08e-11 2.13e-11 2.17e-11 
08 02 06  09 00 09 2.73e-11 2.68e-11 2.63e-11 2.53e-11 2.46e-11 2.4e-11 2.35e-11 2.32e-11 2.29e-11 2.27e-11 2.25e-11 2.22e-11 2.2e-11 2.18e-11 2.17e-11 2.16e-11 2.15e-11 2.15e-11 2.14e-11 2.14e-11 2.14e-11 
08 02 06  10 00 10 2.11e-12 4.03e-12 5.56e-12 7.6e-12 8.82e-12 9.59e-12 1.01e-11 1.05e-11 1.07e-11 1.09e-11 1.11e-11 1.13e-11 1.15e-11 1.16e-11 1.18e-11 1.19e-11 1.2e-11 1.22e-11 1.23e-11 1.24e-11 1.25e-11 
08 02 06  11 00 11 6e-14 3.9e-13 9.9e-13 2.54e-12 4.03e-12 5.29e-12 6.33e-12 7.18e-12 7.88e-12 8.47e-12 8.97e-12 9.76e-12 1.04e-11 1.08e-11 1.12e-11 1.16e-11 1.18e-11 1.21e-11 1.23e-11 1.24e-11 1.26e-11 
08 02 06  12 00 12 0 1e-14 7e-14 3.7e-13 8.3e-13 1.36e-12 1.88e-12 2.38e-12 2.83e-12 3.24e-12 3.62e-12 4.28e-12 4.85e-12 5.36e-12 5.83e-12 6.28e-12 6.7e-12 7.12e-12 7.53e-12 7.94e-12 8.35e-12 
08 02 06  02 02 01 1.24e-12 1.3e-12 1.34e-12 1.41e-12 1.47e-12 1.52e-12 1.58e-12 1.64e-12 1.7e-12 1.76e-12 1.82e-12 1.94e-12 2.07e-12 2.19e-12 2.32e-12 2.43e-12 2.54e-12 2.65e-12 2.75e-12 2.85e-12 2.94e-12 
08 02 06  02 02 00 1.33e-12 1.33e-12 1.35e-12 1.4e-12 1.44e-12 1.49e-12 1.53e-12 1.57e-12 1.6e-12 1.64e-12 1.67e-12 1.73e-12 1.79e-12 1.85e-12 1.91e-12 1.97e-12 2.03e-12 2.09e-12 2.15e-12 2.21e-12 2.28e-12 
08 02 06  03 02 02 1.13e-12 1.2e-12 1.28e-12 1.44e-12 1.59e-12 1.74e-12 1.87e-12 1.99e-12 2.1e-12 2.2e-12 2.29e-12 2.46e-12 2.61e-12 2.75e-12 2.88e-12 3e-12 3.11e-12 3.23e-12 3.33e-12 3.44e-12 3.54e-12 
08 02 06  03 02 01 2.84e-12 2.84e-12 2.84e-12 2.85e-12 2.88e-12 2.93e-12 3e-12 3.08e-12 3.17e-12 3.26e-12 3.36e-12 3.56e-12 3.77e-12 3.96e-12 4.15e-12 4.34e-12 4.51e-12 4.68e-12 4.83e-12 4.98e-12 5.13e-12 
08 02 06  04 02 03 4.46e-12 4.64e-12 4.81e-12 5.14e-12 5.41e-12 5.65e-12 5.86e-12 6.05e-12 6.24e-12 6.41e-12 6.58e-12 6.89e-12 7.17e-12 7.44e-12 7.68e-12 7.89e-12 8.09e-12 8.27e-12 8.43e-12 8.57e-12 8.7e-12 
08 02 06  04 02 02 2.24e-12 2.23e-12 2.25e-12 2.34e-12 2.45e-12 2.58e-12 2.72e-12 2.86e-12 3.01e-12 3.16e-12 3.31e-12 3.61e-12 3.89e-12 4.17e-12 4.42e-12 4.66e-12 4.88e-12 5.08e-12 5.27e-12 5.43e-12 5.58e-12 
08 02 06  05 02 04 5.14e-12 5.25e-12 5.37e-12 5.64e-12 5.9e-12 6.15e-12 6.39e-12 6.6e-12 6.81e-12 7e-12 7.18e-12 7.52e-12 7.83e-12 8.13e-12 8.41e-12 8.67e-12 8.92e-12 9.16e-12 9.38e-12 9.6e-12 9.8e-12 
08 02 06  05 02 03 6.19e-12 6.34e-12 6.51e-12 6.92e-12 7.34e-12 7.76e-12 8.14e-12 8.5e-12 8.82e-12 9.11e-12 9.38e-12 9.84e-12 1.02e-11 1.06e-11 1.08e-11 1.11e-11 1.13e-11 1.15e-11 1.17e-11 1.19e-11 1.21e-11 
08 02 06  06 02 05 1.13e-11 1.13e-11 1.14e-11 1.17e-11 1.19e-11 1.22e-11 1.25e-11 1.27e-11 1.3e-11 1.33e-11 1.35e-11 1.4e-11 1.44e-11 1.48e-11 1.51e-11 1.54e-11 1.57e-11 1.59e-11 1.61e-11 1.63e-11 1.64e-11 
08 02 06  06 02 04 5.85e-12 6.12e-12 6.37e-12 6.94e-12 7.64e-12 8.41e-12 9.21e-12 1e-11 1.08e-11 1.16e-11 1.23e-11 1.37e-11 1.49e-11 1.6e-11 1.7e-11 1.79e-11 1.87e-11 1.95e-11 2.02e-11 2.09e-11 2.15e-11 
08 02 06  07 02 06 7.97e-12 7.95e-12 7.98e-12 8.14e-12 8.38e-12 8.67e-12 8.96e-12 9.25e-12 9.54e-12 9.82e-12 1.01e-11 1.06e-11 1.11e-11 1.16e-11 1.21e-11 1.26e-11 1.31e-11 1.36e-11 1.41e-11 1.46e-11 1.51e-11 
08 02 06  07 02 05 4.33e-11 4.38e-11 4.44e-11 4.52e-11 4.58e-11 4.62e-11 4.65e-11 4.67e-11 4.68e-11 4.69e-11 4.7e-11 4.71e-11 4.71e-11 4.72e-11 4.72e-11 4.73e-11 4.74e-11 4.75e-11 4.76e-11 4.77e-11 4.78e-11 
08 02 06  08 02 07 8.65e-12 8.77e-12 8.79e-12 8.85e-12 8.97e-12 9.14e-12 9.33e-12 9.55e-12 9.77e-12 1e-11 1.02e-11 1.07e-11 1.11e-11 1.15e-11 1.19e-11 1.22e-11 1.25e-11 1.28e-11 1.3e-11 1.32e-11 1.34e-11 
08 02 06  08 02 06 0 0 0 0 0 0 0 0 0 0 0 0 0 0 0 0 0 0 0 0 0 
08 02 06  09 02 08 1.5e-13 4.6e-13 8.2e-13 1.54e-12 2.24e-12 2.89e-12 3.51e-12 4.09e-12 4.64e-12 5.17e-12 5.67e-12 6.6e-12 7.46e-12 8.26e-12 9.01e-12 9.74e-12 1.04e-11 1.1e-11 1.15e-11 1.2e-11 1.25e-11 
08 02 06  09 02 07 2.31e-12 6.55e-12 1.11e-11 1.87e-11 2.43e-11 2.84e-11 3.16e-11 3.4e-11 3.59e-11 3.75e-11 3.88e-11 4.08e-11 4.24e-11 4.35e-11 4.45e-11 4.53e-11 4.6e-11 4.66e-11 4.7e-11 4.75e-11 4.78e-11 
08 02 06  10 02 09 0 4e-14 1.2e-13 3.6e-13 6.5e-13 9.6e-13 1.27e-12 1.57e-12 1.88e-12 2.19e-12 2.49e-12 3.07e-12 3.62e-12 4.15e-12 4.65e-12 5.11e-12 5.54e-12 5.96e-12 6.33e-12 6.7e-12 7.04e-12 
08 02 06  10 02 08 1e-14 7e-14 2.3e-13 7.7e-13 1.51e-12 2.35e-12 3.26e-12 4.2e-12 5.17e-12 6.14e-12 7.12e-12 9.02e-12 1.08e-11 1.25e-11 1.41e-11 1.56e-11 1.71e-11 1.84e-11 1.96e-11 2.07e-11 2.18e-11 
08 02 06  11 02 10 0 0 2e-14 1.2e-13 3e-13 5.2e-13 7.6e-13 1.01e-12 1.26e-12 1.51e-12 1.75e-12 2.23e-12 2.68e-12 3.13e-12 3.57e-12 4.02e-12 4.46e-12 4.9e-12 5.35e-12 5.81e-12 6.26e-12 
08 02 06  11 02 09 0 1e-14 7e-14 4e-13 1e-12 1.76e-12 2.59e-12 3.45e-12 4.31e-12 5.11e-12 5.88e-12 7.34e-12 8.7e-12 9.84e-12 1.09e-11 1.19e-11 1.27e-11 1.35e-11 1.41e-11 1.47e-11 1.53e-11 
08 02 06  04 04 01 0 2e-14 6e-14 1.4e-13 2.3e-13 3.2e-13 4.1e-13 4.9e-13 5.7e-13 6.4e-13 7.2e-13 8.6e-13 9.9e-13 1.11e-12 1.23e-12 1.34e-12 1.46e-12 1.56e-12 1.66e-12 1.76e-12 1.86e-12 
08 02 06  04 04 00 0 2e-14 4e-14 9e-14 1.4e-13 1.9e-13 2.4e-13 2.8e-13 3.1e-13 3.5e-13 3.8e-13 4.3e-13 4.9e-13 5.4e-13 5.9e-13 6.4e-13 6.9e-13 7.5e-13 8.1e-13 8.7e-13 9.3e-13 
08 02 06  05 04 02 0 1e-14 2e-14 9e-14 1.9e-13 3.1e-13 4.3e-13 5.6e-13 6.9e-13 8.1e-13 9.3e-13 1.16e-12 1.38e-12 1.59e-12 1.79e-12 1.98e-12 2.16e-12 2.33e-12 2.49e-12 2.64e-12 2.79e-12 
08 02 06  05 04 01 0 2e-14 8e-14 2.5e-13 4.8e-13 7e-13 9.2e-13 1.12e-12 1.31e-12 1.49e-12 1.66e-12 1.97e-12 2.26e-12 2.52e-12 2.76e-12 3e-12 3.22e-12 3.43e-12 3.64e-12 3.83e-12 4.03e-12 
08 02 06  06 04 03 0 0 2e-14 1e-13 2.3e-13 3.9e-13 5.7e-13 7.6e-13 9.6e-13 1.16e-12 1.36e-12 1.75e-12 2.13e-12 2.5e-12 2.86e-12 3.21e-12 3.54e-12 3.87e-12 4.2e-12 4.52e-12 4.83e-12 
08 02 06  06 04 02 0 1e-14 2e-14 1.1e-13 2.5e-13 4.2e-13 6.1e-13 8e-13 1e-12 1.19e-12 1.37e-12 1.72e-12 2.05e-12 2.36e-12 2.64e-12 2.9e-12 3.15e-12 3.39e-12 3.61e-12 3.83e-12 4.04e-12 
08 02 06  07 04 04 0 0 1e-14 4e-14 1.2e-13 2.3e-13 3.6e-13 5.2e-13 6.9e-13 8.7e-13 1.05e-12 1.43e-12 1.79e-12 2.15e-12 2.5e-12 2.85e-12 3.18e-12 3.5e-12 3.81e-12 4.11e-12 4.41e-12 
08 02 06  07 04 03 0 0 1e-14 5e-14 1.5e-13 2.9e-13 4.6e-13 6.4e-13 8.4e-13 1.03e-12 1.23e-12 1.63e-12 2.01e-12 2.39e-12 2.76e-12 3.13e-12 3.49e-12 3.85e-12 4.2e-12 4.55e-12 4.9e-12 
09 02 08  00 00 00 0 0 0 0 0 0 0 0 0 0 0 0 0 0 0 0 0 0 0 0 0 
09 02 08  01 00 01 5e-14 5e-14 5e-14 4e-14 4e-14 4e-14 4e-14 4e-14 4e-14 4e-14 4e-14 4e-14 4e-14 4e-14 4e-14 4e-14 5e-14 5e-14 5e-14 5e-14 6e-14 
09 02 08  02 00 02 2.7e-13 2.6e-13 2.6e-13 2.5e-13 2.5e-13 2.5e-13 2.4e-13 2.4e-13 2.4e-13 2.4e-13 2.4e-13 2.4e-13 2.5e-13 2.5e-13 2.5e-13 2.6e-13 2.6e-13 2.7e-13 2.7e-13 2.8e-13 2.9e-13 
09 02 08  03 00 03 6.9e-13 6.7e-13 6.7e-13 6.7e-13 6.8e-13 6.9e-13 6.9e-13 7e-13 7.1e-13 7.2e-13 7.2e-13 7.4e-13 7.6e-13 7.7e-13 7.9e-13 8e-13 8.2e-13 8.4e-13 8.5e-13 8.7e-13 8.9e-13 
09 02 08  04 00 04 1.85e-12 1.82e-12 1.82e-12 1.84e-12 1.86e-12 1.88e-12 1.9e-12 1.91e-12 1.93e-12 1.94e-12 1.95e-12 1.98e-12 2.02e-12 2.05e-12 2.09e-12 2.13e-12 2.18e-12 2.23e-12 2.27e-12 2.32e-12 2.37e-12 
09 02 08  05 00 05 4.36e-12 4.27e-12 4.24e-12 4.23e-12 4.22e-12 4.22e-12 4.22e-12 4.23e-12 4.24e-12 4.25e-12 4.27e-12 4.31e-12 4.36e-12 4.42e-12 4.48e-12 4.55e-12 4.61e-12 4.68e-12 4.74e-12 4.81e-12 4.87e-12 
09 02 08  06 00 06 7.05e-12 6.83e-12 6.69e-12 6.52e-12 6.41e-12 6.34e-12 6.3e-12 6.29e-12 6.29e-12 6.31e-12 6.34e-12 6.43e-12 6.55e-12 6.69e-12 6.85e-12 7.02e-12 7.21e-12 7.41e-12 7.61e-12 7.82e-12 8.04e-12 
09 02 08  07 00 07 1.28e-11 1.23e-11 1.19e-11 1.14e-11 1.1e-11 1.08e-11 1.06e-11 1.05e-11 1.04e-11 1.04e-11 1.04e-11 1.04e-11 1.05e-11 1.06e-11 1.08e-11 1.09e-11 1.11e-11 1.13e-11 1.15e-11 1.16e-11 1.18e-11 
09 02 08  08 00 08 9.37e-12 9.13e-12 9.02e-12 8.97e-12 9.04e-12 9.18e-12 9.36e-12 9.54e-12 9.74e-12 9.93e-12 1.01e-11 1.05e-11 1.08e-11 1.12e-11 1.15e-11 1.18e-11 1.21e-11 1.25e-11 1.28e-11 1.3e-11 1.33e-11 
09 02 08  09 00 09 1.13e-11 1.09e-11 1.07e-11 1.03e-11 9.97e-12 9.69e-12 9.45e-12 9.25e-12 9.08e-12 8.94e-12 8.84e-12 8.69e-12 8.63e-12 8.62e-12 8.66e-12 8.74e-12 8.85e-12 8.98e-12 9.12e-12 9.28e-12 9.44e-12 
09 02 08  10 00 10 6.65e-12 6.59e-12 6.5e-12 6.36e-12 6.32e-12 6.33e-12 6.38e-12 6.46e-12 6.55e-12 6.66e-12 6.77e-12 7.01e-12 7.26e-12 7.51e-12 7.76e-12 8e-12 8.24e-12 8.48e-12 8.71e-12 8.93e-12 9.15e-12 
09 02 08  11 00 11 1.14e-12 2.71e-12 4.16e-12 6.31e-12 7.7e-12 8.63e-12 9.29e-12 9.79e-12 1.02e-11 1.05e-11 1.08e-11 1.12e-11 1.16e-11 1.19e-11 1.21e-11 1.24e-11 1.26e-11 1.28e-11 1.3e-11 1.31e-11 1.33e-11 
09 02 08  12 00 12 2e-14 1.7e-13 5.2e-13 1.62e-12 2.82e-12 3.9e-12 4.82e-12 5.58e-12 6.22e-12 6.76e-12 7.22e-12 7.97e-12 8.56e-12 9.06e-12 9.5e-12 9.91e-12 1.03e-11 1.06e-11 1.1e-11 1.14e-11 1.17e-11 
09 02 08  02 02 01 1.96e-12 1.95e-12 1.98e-12 2.09e-12 2.23e-12 2.37e-12 2.51e-12 2.64e-12 2.77e-12 2.9e-12 3.01e-12 3.23e-12 3.43e-12 3.62e-12 3.8e-12 3.98e-12 4.17e-12 4.36e-12 4.55e-12 4.75e-12 4.95e-12 
09 02 08  02 02 00 1.2e-12 1.18e-12 1.18e-12 1.2e-12 1.23e-12 1.28e-12 1.32e-12 1.36e-12 1.41e-12 1.45e-12 1.49e-12 1.57e-12 1.63e-12 1.69e-12 1.75e-12 1.79e-12 1.83e-12 1.86e-12 1.89e-12 1.91e-12 1.93e-12 
09 02 08  03 02 02 2.42e-12 2.41e-12 2.43e-12 2.49e-12 2.55e-12 2.6e-12 2.65e-12 2.68e-12 2.71e-12 2.74e-12 2.77e-12 2.82e-12 2.87e-12 2.92e-12 2.98e-12 3.03e-12 3.09e-12 3.16e-12 3.22e-12 3.28e-12 3.34e-12 
09 02 08  03 02 01 3.77e-12 3.81e-12 3.89e-12 4.08e-12 4.26e-12 4.41e-12 4.54e-12 4.66e-12 4.78e-12 4.89e-12 5e-12 5.21e-12 5.42e-12 5.63e-12 5.84e-12 6.04e-12 6.24e-12 6.44e-12 6.64e-12 6.83e-12 7.02e-12 
09 02 08  04 02 03 5.99e-12 5.9e-12 5.87e-12 5.89e-12 5.95e-12 6.02e-12 6.11e-12 6.21e-12 6.31e-12 6.43e-12 6.54e-12 6.78e-12 7.02e-12 7.26e-12 7.5e-12 7.73e-12 7.97e-12 8.2e-12 8.42e-12 8.64e-12 8.86e-12 
09 02 08  04 02 02 4.11e-12 4.01e-12 3.96e-12 3.91e-12 3.88e-12 3.87e-12 3.86e-12 3.86e-12 3.86e-12 3.87e-12 3.89e-12 3.93e-12 3.98e-12 4.05e-12 4.12e-12 4.21e-12 4.31e-12 4.41e-12 4.52e-12 4.63e-12 4.76e-12 
09 02 08  05 02 04 3.48e-12 3.4e-12 3.37e-12 3.37e-12 3.42e-12 3.5e-12 3.59e-12 3.69e-12 3.81e-12 3.93e-12 4.06e-12 4.33e-12 4.62e-12 4.91e-12 5.21e-12 5.5e-12 5.78e-12 6.06e-12 6.33e-12 6.58e-12 6.83e-12 
09 02 08  05 02 03 7.01e-12 6.82e-12 6.7e-12 6.52e-12 6.41e-12 6.36e-12 6.36e-12 6.4e-12 6.48e-12 6.57e-12 6.69e-12 6.95e-12 7.23e-12 7.51e-12 7.79e-12 8.05e-12 8.3e-12 8.52e-12 8.73e-12 8.92e-12 9.09e-12 
09 02 08  06 02 05 6.03e-12 6.1e-12 6.25e-12 6.64e-12 7.05e-12 7.42e-12 7.76e-12 8.07e-12 8.35e-12 8.61e-12 8.84e-12 9.24e-12 9.58e-12 9.89e-12 1.02e-11 1.04e-11 1.06e-11 1.08e-11 1.1e-11 1.12e-11 1.13e-11 
09 02 08  06 02 04 2.86e-12 2.8e-12 2.79e-12 2.83e-12 2.93e-12 3.06e-12 3.21e-12 3.37e-12 3.53e-12 3.69e-12 3.85e-12 4.18e-12 4.5e-12 4.82e-12 5.14e-12 5.45e-12 5.77e-12 6.07e-12 6.37e-12 6.67e-12 6.97e-12 
09 02 08  07 02 06 5.93e-12 6.11e-12 6.36e-12 6.97e-12 7.71e-12 8.52e-12 9.37e-12 1.02e-11 1.11e-11 1.19e-11 1.27e-11 1.43e-11 1.57e-11 1.7e-11 1.81e-11 1.92e-11 2.02e-11 2.1e-11 2.18e-11 2.26e-11 2.32e-11 
09 02 08  07 02 05 2.82e-12 2.79e-12 2.79e-12 2.87e-12 3.01e-12 3.19e-12 3.39e-12 3.6e-12 3.81e-12 4.03e-12 4.25e-12 4.66e-12 5.05e-12 5.4e-12 5.73e-12 6.02e-12 6.28e-12 6.52e-12 6.73e-12 6.92e-12 7.09e-12 
09 02 08  08 02 07 5.14e-11 5.1e-11 5.09e-11 5.09e-11 5.08e-11 5.07e-11 5.06e-11 5.05e-11 5.03e-11 5.01e-11 5e-11 4.97e-11 4.94e-11 4.91e-11 4.89e-11 4.87e-11 4.85e-11 4.84e-11 4.83e-11 4.81e-11 4.8e-11 
09 02 08  08 02 06 3.19e-12 3.35e-12 3.53e-12 3.94e-12 4.39e-12 4.85e-12 5.3e-12 5.73e-12 6.15e-12 6.56e-12 6.95e-12 7.68e-12 8.36e-12 9e-12 9.6e-12 1.02e-11 1.07e-11 1.12e-11 1.16e-11 1.2e-11 1.24e-11 
09 02 08  09 02 08 0 0 0 0 0 0 0 0 0 0 0 0 0 0 0 0 0 0 0 0 0 
09 02 08  09 02 07 8.59e-12 8.96e-12 8.99e-12 8.88e-12 8.81e-12 8.82e-12 8.89e-12 9.01e-12 9.16e-12 9.33e-12 9.52e-12 9.91e-12 1.03e-11 1.07e-11 1.11e-11 1.15e-11 1.19e-11 1.22e-11 1.26e-11 1.29e-11 1.32e-11 
09 02 08  10 02 09 1.73e-12 5.54e-12 9.94e-12 1.79e-11 2.4e-11 2.87e-11 3.23e-11 3.51e-11 3.73e-11 3.92e-11 4.08e-11 4.31e-11 4.49e-11 4.63e-11 4.73e-11 4.83e-11 4.89e-11 4.96e-11 5.01e-11 5.05e-11 5.09e-11 
09 02 08  10 02 08 2.5e-13 8e-13 1.42e-12 2.54e-12 3.44e-12 4.17e-12 4.79e-12 5.33e-12 5.82e-12 6.27e-12 6.69e-12 7.48e-12 8.21e-12 8.88e-12 9.56e-12 1.02e-11 1.08e-11 1.15e-11 1.21e-11 1.27e-11 1.33e-11 
09 02 08  11 02 10 0 4e-14 1.5e-13 5.8e-13 1.22e-12 1.98e-12 2.8e-12 3.66e-12 4.54e-12 5.41e-12 6.33e-12 8.08e-12 9.82e-12 1.16e-11 1.31e-11 1.47e-11 1.61e-11 1.76e-11 1.9e-11 2.02e-11 2.15e-11 
09 02 08  11 02 09 1e-14 1e-13 3.3e-13 1.12e-12 2.09e-12 3.04e-12 3.96e-12 4.84e-12 5.61e-12 6.37e-12 7.09e-12 8.41e-12 9.6e-12 1.07e-11 1.18e-11 1.27e-11 1.36e-11 1.44e-11 1.52e-11 1.58e-11 1.65e-11 
09 02 08  04 04 01 8e-14 1.8e-13 2.9e-13 5.6e-13 8.4e-13 1.12e-12 1.39e-12 1.65e-12 1.88e-12 2.1e-12 2.31e-12 2.7e-12 3.05e-12 3.36e-12 3.64e-12 3.89e-12 4.12e-12 4.32e-12 4.49e-12 4.69e-12 4.8e-12 
09 02 08  04 04 00 6e-14 1.4e-13 2.3e-13 4.4e-13 6.6e-13 9e-13 1.12e-12 1.34e-12 1.55e-12 1.74e-12 1.92e-12 2.26e-12 2.56e-12 2.83e-12 3.08e-12 3.3e-12 3.51e-12 3.69e-12 3.87e-12 4.02e-12 4.17e-12 
09 02 08  05 04 02 1e-14 5e-14 1.1e-13 2.3e-13 3.6e-13 4.8e-13 5.9e-13 7.1e-13 8.2e-13 9.3e-13 1.03e-12 1.24e-12 1.43e-12 1.62e-12 1.81e-12 1.99e-12 2.17e-12 2.34e-12 2.52e-12 2.69e-12 2.87e-12 
09 02 08  05 04 01 2e-14 9e-14 1.8e-13 3.7e-13 5.6e-13 7.4e-13 9e-13 1.06e-12 1.21e-12 1.35e-12 1.48e-12 1.73e-12 1.97e-12 2.19e-12 2.4e-12 2.59e-12 2.78e-12 2.95e-12 3.12e-12 3.29e-12 3.44e-12 
09 02 08  06 04 03 1e-14 5e-14 1.3e-13 3.5e-13 6e-13 8.4e-13 1.06e-12 1.27e-12 1.46e-12 1.64e-12 1.81e-12 2.11e-12 2.39e-12 2.64e-12 2.87e-12 3.09e-12 3.29e-12 3.48e-12 3.66e-12 3.83e-12 3.99e-12 
09 02 08  06 04 02 0 2e-14 5e-14 1.6e-13 2.8e-13 4.2e-13 5.6e-13 7e-13 8.4e-13 9.8e-13 1.11e-12 1.35e-12 1.58e-12 1.79e-12 1.98e-12 2.17e-12 2.34e-12 2.51e-12 2.67e-12 2.82e-12 2.97e-12 
09 02 08  07 04 04 0 0 2e-14 8e-14 1.9e-13 3.2e-13 4.6e-13 6.2e-13 7.7e-13 9.3e-13 1.08e-12 1.37e-12 1.65e-12 1.91e-12 2.16e-12 2.4e-12 2.63e-12 2.86e-12 3.09e-12 3.31e-12 3.53e-12 
09 02 08  07 04 03 0 1e-14 3e-14 1.1e-13 2.4e-13 3.8e-13 5.4e-13 7.1e-13 8.7e-13 1.03e-12 1.18e-12 1.48e-12 1.77e-12 2.04e-12 2.31e-12 2.57e-12 2.82e-12 3.06e-12 3.31e-12 3.55e-12 3.78e-12 
09 02 07  00 00 00 1.7e-13 1.7e-13 1.7e-13 1.7e-13 1.7e-13 1.8e-13 1.9e-13 1.9e-13 2.1e-13 2.2e-13 2.3e-13 2.6e-13 2.8e-13 3e-13 3.3e-13 3.5e-13 3.7e-13 3.8e-13 4e-13 4.2e-13 4.3e-13 
09 02 07  01 00 01 6.3e-13 6.3e-13 6.3e-13 6.4e-13 6.5e-13 6.6e-13 6.7e-13 6.8e-13 6.9e-13 7e-13 7.2e-13 7.5e-13 7.9e-13 8.2e-13 8.6e-13 8.9e-13 9.3e-13 9.6e-13 9.9e-13 1.01e-12 1.04e-12 
09 02 07  02 00 02 6e-13 6.3e-13 6.6e-13 7.1e-13 7.5e-13 8e-13 8.4e-13 8.9e-13 9.4e-13 9.8e-13 1.03e-12 1.12e-12 1.21e-12 1.3e-12 1.38e-12 1.45e-12 1.52e-12 1.58e-12 1.64e-12 1.69e-12 1.74e-12 
09 02 07  03 00 03 1.43e-12 1.45e-12 1.47e-12 1.52e-12 1.56e-12 1.59e-12 1.61e-12 1.64e-12 1.67e-12 1.7e-12 1.73e-12 1.79e-12 1.87e-12 1.95e-12 2.03e-12 2.12e-12 2.21e-12 2.3e-12 2.4e-12 2.5e-12 2.61e-12 
09 02 07  04 00 04 2.21e-12 2.2e-12 2.21e-12 2.22e-12 2.24e-12 2.26e-12 2.29e-12 2.33e-12 2.37e-12 2.42e-12 2.47e-12 2.59e-12 2.71e-12 2.83e-12 2.95e-12 3.06e-12 3.18e-12 3.28e-12 3.39e-12 3.49e-12 3.58e-12 
09 02 07  05 00 05 2.27e-12 2.23e-12 2.21e-12 2.21e-12 2.24e-12 2.31e-12 2.39e-12 2.49e-12 2.59e-12 2.7e-12 2.81e-12 3.02e-12 3.23e-12 3.43e-12 3.62e-12 3.8e-12 3.97e-12 4.14e-12 4.31e-12 4.47e-12 4.63e-12 
09 02 07  06 00 06 2.62e-12 2.56e-12 2.53e-12 2.5e-12 2.49e-12 2.5e-12 2.53e-12 2.56e-12 2.61e-12 2.65e-12 2.7e-12 2.81e-12 2.92e-12 3.04e-12 3.16e-12 3.29e-12 3.41e-12 3.53e-12 3.65e-12 3.78e-12 3.9e-12 
09 02 07  07 00 07 3.73e-12 3.81e-12 3.92e-12 4.13e-12 4.32e-12 4.47e-12 4.6e-12 4.72e-12 4.82e-12 4.92e-12 5e-12 5.16e-12 5.3e-12 5.43e-12 5.55e-12 5.66e-12 5.76e-12 5.85e-12 5.94e-12 6.01e-12 6.08e-12 
09 02 07  08 00 08 1.02e-11 9.95e-12 9.78e-12 9.52e-12 9.29e-12 9.09e-12 8.91e-12 8.76e-12 8.62e-12 8.51e-12 8.41e-12 8.25e-12 8.14e-12 8.06e-12 8.01e-12 7.99e-12 7.98e-12 7.99e-12 8.02e-12 8.05e-12 8.09e-12 
09 02 07  09 00 09 1.44e-11 1.41e-11 1.4e-11 1.39e-11 1.41e-11 1.43e-11 1.46e-11 1.49e-11 1.52e-11 1.55e-11 1.58e-11 1.64e-11 1.69e-11 1.74e-11 1.79e-11 1.84e-11 1.88e-11 1.93e-11 1.97e-11 2.01e-11 2.05e-11 
09 02 07  10 00 10 3.35e-11 3.27e-11 3.16e-11 2.97e-11 2.81e-11 2.7e-11 2.61e-11 2.54e-11 2.48e-11 2.44e-11 2.4e-11 2.34e-11 2.3e-11 2.27e-11 2.25e-11 2.24e-11 2.23e-11 2.23e-11 2.23e-11 2.23e-11 2.24e-11 
09 02 07  11 00 11 1.09e-12 2.6e-12 4.03e-12 6.23e-12 7.7e-12 8.72e-12 9.46e-12 1e-11 1.05e-11 1.08e-11 1.11e-11 1.16e-11 1.2e-11 1.24e-11 1.27e-11 1.3e-11 1.33e-11 1.36e-11 1.38e-11 1.41e-11 1.44e-11 
09 02 07  12 00 12 2e-14 1.6e-13 5e-13 1.57e-12 2.75e-12 3.84e-12 4.77e-12 5.56e-12 6.23e-12 6.79e-12 7.28e-12 8.06e-12 8.67e-12 9.16e-12 9.56e-12 9.9e-12 1.02e-11 1.04e-11 1.07e-11 1.09e-11 1.1e-11 
09 02 07  02 02 01 1e-12 1.01e-12 1.03e-12 1.1e-12 1.17e-12 1.23e-12 1.29e-12 1.35e-12 1.4e-12 1.45e-12 1.49e-12 1.58e-12 1.65e-12 1.73e-12 1.8e-12 1.88e-12 1.95e-12 2.03e-12 2.11e-12 2.19e-12 2.27e-12 
09 02 07  02 02 00 1.01e-12 1.02e-12 1.04e-12 1.08e-12 1.11e-12 1.14e-12 1.16e-12 1.19e-12 1.22e-12 1.24e-12 1.27e-12 1.33e-12 1.39e-12 1.45e-12 1.51e-12 1.56e-12 1.62e-12 1.68e-12 1.74e-12 1.8e-12 1.86e-12 
09 02 07  03 02 02 1.01e-12 1.03e-12 1.07e-12 1.14e-12 1.23e-12 1.3e-12 1.38e-12 1.45e-12 1.52e-12 1.58e-12 1.64e-12 1.76e-12 1.86e-12 1.97e-12 2.07e-12 2.17e-12 2.26e-12 2.35e-12 2.44e-12 2.52e-12 2.61e-12 
09 02 07  03 02 01 1.56e-12 1.57e-12 1.59e-12 1.65e-12 1.7e-12 1.76e-12 1.81e-12 1.86e-12 1.92e-12 1.97e-12 2.02e-12 2.14e-12 2.26e-12 2.38e-12 2.5e-12 2.63e-12 2.76e-12 2.89e-12 3.02e-12 3.16e-12 3.29e-12 
09 02 07  04 02 03 1.49e-12 1.5e-12 1.54e-12 1.64e-12 1.75e-12 1.86e-12 1.97e-12 2.08e-12 2.19e-12 2.3e-12 2.4e-12 2.59e-12 2.78e-12 2.97e-12 3.15e-12 3.32e-12 3.5e-12 3.67e-12 3.85e-12 4.02e-12 4.19e-12 
09 02 07  04 02 02 3.15e-12 3.15e-12 3.17e-12 3.23e-12 3.3e-12 3.37e-12 3.45e-12 3.53e-12 3.62e-12 3.71e-12 3.8e-12 3.98e-12 4.17e-12 4.35e-12 4.53e-12 4.7e-12 4.88e-12 5.05e-12 5.22e-12 5.38e-12 5.55e-12 
09 02 07  05 02 04 4.92e-12 4.96e-12 5.07e-12 5.3e-12 5.53e-12 5.75e-12 5.95e-12 6.14e-12 6.32e-12 6.5e-12 6.67e-12 6.99e-12 7.3e-12 7.59e-12 7.87e-12 8.13e-12 8.37e-12 8.61e-12 8.83e-12 9.04e-12 9.23e-12 
09 02 07  05 02 03 2.61e-12 2.56e-12 2.56e-12 2.61e-12 2.71e-12 2.84e-12 2.98e-12 3.13e-12 3.29e-12 3.46e-12 3.64e-12 4e-12 4.37e-12 4.74e-12 5.09e-12 5.44e-12 5.76e-12 6.08e-12 6.37e-12 6.64e-12 6.9e-12 
09 02 07  06 02 05 5.8e-12 5.73e-12 5.74e-12 5.85e-12 6.01e-12 6.18e-12 6.36e-12 6.54e-12 6.71e-12 6.89e-12 7.06e-12 7.4e-12 7.74e-12 8.08e-12 8.41e-12 8.74e-12 9.05e-12 9.36e-12 9.65e-12 9.94e-12 1.02e-11 
09 02 07  06 02 04 7.74e-12 7.74e-12 7.84e-12 8.15e-12 8.49e-12 8.84e-12 9.18e-12 9.5e-12 9.8e-12 1.01e-11 1.03e-11 1.08e-11 1.12e-11 1.16e-11 1.2e-11 1.23e-11 1.26e-11 1.29e-11 1.32e-11 1.34e-11 1.37e-11 
09 02 07  07 02 06 1.29e-11 1.26e-11 1.24e-11 1.23e-11 1.24e-11 1.25e-11 1.27e-11 1.29e-11 1.31e-11 1.33e-11 1.35e-11 1.39e-11 1.43e-11 1.47e-11 1.51e-11 1.54e-11 1.58e-11 1.6e-11 1.63e-11 1.65e-11 1.67e-11 
09 02 07  07 02 05 5.6e-12 5.66e-12 5.82e-12 6.34e-12 7.05e-12 7.86e-12 8.72e-12 9.6e-12 1.05e-11 1.13e-11 1.22e-11 1.37e-11 1.52e-11 1.65e-11 1.77e-11 1.88e-11 1.99e-11 2.08e-11 2.17e-11 2.25e-11 2.32e-11 
09 02 07  08 02 07 8.37e-12 8.18e-12 8.06e-12 7.99e-12 8.07e-12 8.23e-12 8.44e-12 8.69e-12 8.95e-12 9.23e-12 9.51e-12 1.01e-11 1.07e-11 1.13e-11 1.18e-11 1.24e-11 1.3e-11 1.35e-11 1.4e-11 1.45e-11 1.5e-11 
09 02 07  08 02 06 4.79e-11 4.77e-11 4.77e-11 4.77e-11 4.77e-11 4.77e-11 4.77e-11 4.76e-11 4.76e-11 4.76e-11 4.75e-11 4.75e-11 4.75e-11 4.74e-11 4.74e-11 4.74e-11 4.75e-11 4.75e-11 4.75e-11 4.75e-11 4.75e-11 
09 02 07  09 02 08 8.59e-12 8.96e-12 8.99e-12 8.88e-12 8.81e-12 8.82e-12 8.89e-12 9.01e-12 9.16e-12 9.33e-12 9.52e-12 9.91e-12 1.03e-11 1.07e-11 1.11e-11 1.15e-11 1.19e-11 1.22e-11 1.26e-11 1.29e-11 1.32e-11 
09 02 07  09 02 07 0 0 0 0 0 0 0 0 0 0 0 0 0 0 0 0 0 0 0 0 0 
09 02 07  10 02 09 9e-14 3.2e-13 6.2e-13 1.26e-12 1.89e-12 2.48e-12 3.03e-12 3.54e-12 4.01e-12 4.45e-12 4.87e-12 5.63e-12 6.33e-12 6.97e-12 7.56e-12 8.11e-12 8.65e-12 9.15e-12 9.63e-12 1.01e-11 1.05e-11 
09 02 07  10 02 08 1.56e-12 5e-12 9.01e-12 1.63e-11 2.19e-11 2.61e-11 2.94e-11 3.19e-11 3.39e-11 3.55e-11 3.69e-11 3.9e-11 4.06e-11 4.18e-11 4.29e-11 4.37e-11 4.45e-11 4.52e-11 4.58e-11 4.63e-11 4.68e-11 
09 02 07  11 02 10 0 2e-14 7e-14 2.6e-13 4.9e-13 7.4e-13 1e-12 1.26e-12 1.53e-12 1.79e-12 2.06e-12 2.6e-12 3.14e-12 3.67e-12 4.19e-12 4.69e-12 5.18e-12 5.65e-12 6.12e-12 6.57e-12 7e-12 
09 02 07  11 02 09 0 4e-14 1.4e-13 5.3e-13 1.07e-12 1.68e-12 2.34e-12 3.02e-12 3.71e-12 4.4e-12 5.08e-12 6.42e-12 7.67e-12 8.88e-12 1.01e-11 1.12e-11 1.22e-11 1.32e-11 1.41e-11 1.5e-11 1.59e-11 
09 02 07  04 04 01 4e-14 8e-14 1.2e-13 1.9e-13 2.6e-13 3.1e-13 3.6e-13 4e-13 4.4e-13 4.7e-13 5.1e-13 5.7e-13 6.2e-13 6.7e-13 7.2e-13 7.7e-13 8.1e-13 8.6e-13 9e-13 9.4e-13 9.8e-13 
09 02 07  04 04 00 5e-14 1e-13 1.6e-13 2.6e-13 3.6e-13 4.4e-13 5.2e-13 5.9e-13 6.5e-13 7.1e-13 7.7e-13 8.8e-13 9.7e-13 1.06e-12 1.14e-12 1.22e-12 1.29e-12 1.36e-12 1.43e-12 1.49e-12 1.55e-12 
09 02 07  05 04 02 3e-14 9e-14 1.7e-13 3.6e-13 5.4e-13 7.1e-13 8.6e-13 1e-12 1.13e-12 1.26e-12 1.37e-12 1.59e-12 1.8e-12 1.99e-12 2.17e-12 2.34e-12 2.5e-12 2.66e-12 2.8e-12 2.94e-12 3.08e-12 
09 02 07  05 04 01 1e-14 3e-14 7e-14 1.8e-13 3e-13 4.3e-13 5.6e-13 6.8e-13 8e-13 9.1e-13 1.02e-12 1.23e-12 1.42e-12 1.6e-12 1.76e-12 1.92e-12 2.06e-12 2.2e-12 2.32e-12 2.45e-12 2.56e-12 
09 02 07  06 04 03 0 2e-14 7e-14 1.9e-13 3.5e-13 5.2e-13 7e-13 8.8e-13 1.05e-12 1.23e-12 1.39e-12 1.71e-12 2.01e-12 2.28e-12 2.54e-12 2.79e-12 3.02e-12 3.26e-12 3.48e-12 3.71e-12 3.94e-12 
09 02 07  06 04 02 1e-14 6e-14 1.5e-13 4.4e-13 7.5e-13 1.07e-12 1.36e-12 1.64e-12 1.9e-12 2.14e-12 2.36e-12 2.78e-12 3.15e-12 3.49e-12 3.8e-12 4.08e-12 4.35e-12 4.59e-12 4.82e-12 5.04e-12 5.24e-12 
09 02 07  07 04 04 0 1e-14 3e-14 1.2e-13 2.6e-13 4.3e-13 6.2e-13 8.1e-13 1.01e-12 1.22e-12 1.42e-12 1.81e-12 2.18e-12 2.54e-12 2.88e-12 3.22e-12 3.54e-12 3.84e-12 4.14e-12 4.42e-12 4.7e-12 
09 02 07  07 04 03 0 1e-14 4e-14 1.6e-13 3.5e-13 5.9e-13 8.5e-13 1.11e-12 1.37e-12 1.63e-12 1.88e-12 2.35e-12 2.78e-12 3.18e-12 3.55e-12 3.9e-12 4.23e-12 4.55e-12 4.85e-12 5.14e-12 5.43e-12 
10 02 09  00 00 00 0 0 0 0 0 0 0 0 0 0 0 0 0 0 0 0 0 0 0 0 0 
10 02 09  01 00 01 2e-14 2e-14 2e-14 2e-14 2e-14 2e-14 2e-14 2e-14 3e-14 3e-14 3e-14 3e-14 3e-14 3e-14 3e-14 4e-14 4e-14 4e-14 4e-14 4e-14 4e-14 
10 02 09  02 00 02 1.1e-13 1.1e-13 1e-13 1e-13 1e-13 1e-13 1e-13 1e-13 1e-13 1e-13 1e-13 1.1e-13 1.1e-13 1.2e-13 1.2e-13 1.3e-13 1.4e-13 1.5e-13 1.5e-13 1.6e-13 1.7e-13 
10 02 09  03 00 03 4.3e-13 4.2e-13 4.1e-13 4.1e-13 4.1e-13 4.1e-13 4.2e-13 4.3e-13 4.4e-13 4.4e-13 4.5e-13 4.7e-13 4.9e-13 5e-13 5.2e-13 5.4e-13 5.6e-13 5.8e-13 5.9e-13 6.1e-13 6.2e-13 
10 02 09  04 00 04 9.2e-13 9.1e-13 9.1e-13 9.2e-13 9.2e-13 9.3e-13 9.4e-13 9.6e-13 9.7e-13 9.9e-13 1e-12 1.04e-12 1.08e-12 1.12e-12 1.17e-12 1.21e-12 1.26e-12 1.31e-12 1.36e-12 1.41e-12 1.46e-12 
10 02 09  05 00 05 2.23e-12 2.22e-12 2.23e-12 2.26e-12 2.3e-12 2.32e-12 2.34e-12 2.36e-12 2.38e-12 2.4e-12 2.41e-12 2.45e-12 2.49e-12 2.54e-12 2.59e-12 2.64e-12 2.69e-12 2.74e-12 2.8e-12 2.85e-12 2.91e-12 
10 02 09  06 00 06 4.85e-12 4.78e-12 4.76e-12 4.74e-12 4.72e-12 4.7e-12 4.68e-12 4.67e-12 4.67e-12 4.67e-12 4.67e-12 4.7e-12 4.74e-12 4.78e-12 4.84e-12 4.9e-12 4.96e-12 5.03e-12 5.1e-12 5.17e-12 5.25e-12 
10 02 09  07 00 07 7.2e-12 7e-12 6.89e-12 6.76e-12 6.69e-12 6.64e-12 6.63e-12 6.63e-12 6.65e-12 6.69e-12 6.73e-12 6.84e-12 6.98e-12 7.12e-12 7.28e-12 7.44e-12 7.6e-12 7.77e-12 7.93e-12 8.1e-12 8.27e-12 
10 02 09  08 00 08 1.26e-11 1.21e-11 1.18e-11 1.14e-11 1.1e-11 1.08e-11 1.06e-11 1.04e-11 1.03e-11 1.02e-11 1.01e-11 1e-11 1e-11 1e-11 1.01e-11 1.02e-11 1.03e-11 1.04e-11 1.05e-11 1.06e-11 1.07e-11 
10 02 09  09 00 09 8.62e-12 8.42e-12 8.34e-12 8.34e-12 8.47e-12 8.65e-12 8.87e-12 9.11e-12 9.35e-12 9.59e-12 9.84e-12 1.03e-11 1.08e-11 1.12e-11 1.16e-11 1.2e-11 1.23e-11 1.27e-11 1.3e-11 1.33e-11 1.36e-11 
10 02 09  10 00 10 9.95e-12 9.7e-12 9.55e-12 9.32e-12 9.14e-12 8.99e-12 8.87e-12 8.77e-12 8.69e-12 8.63e-12 8.59e-12 8.54e-12 8.53e-12 8.56e-12 8.61e-12 8.68e-12 8.77e-12 8.87e-12 8.98e-12 9.09e-12 9.2e-12 
10 02 09  11 00 11 7.32e-12 7.24e-12 7.11e-12 6.9e-12 6.79e-12 6.75e-12 6.76e-12 6.8e-12 6.87e-12 6.96e-12 7.07e-12 7.3e-12 7.57e-12 7.84e-12 8.12e-12 8.4e-12 8.67e-12 8.94e-12 9.2e-12 9.45e-12 9.7e-12 
10 02 09  12 00 12 4.8e-13 1.47e-12 2.6e-12 4.57e-12 6.01e-12 7.05e-12 7.82e-12 8.41e-12 8.88e-12 9.27e-12 9.61e-12 1.02e-11 1.07e-11 1.11e-11 1.15e-11 1.19e-11 1.22e-11 1.26e-11 1.29e-11 1.32e-11 1.35e-11 
10 02 09  02 02 01 6.5e-13 6.3e-13 6.2e-13 6.2e-13 6.3e-13 6.5e-13 6.7e-13 7e-13 7.3e-13 7.6e-13 7.9e-13 8.6e-13 9.3e-13 1e-12 1.06e-12 1.12e-12 1.17e-12 1.23e-12 1.27e-12 1.32e-12 1.36e-12 
10 02 09  02 02 00 9.9e-13 9.9e-13 1e-12 1.06e-12 1.13e-12 1.22e-12 1.31e-12 1.41e-12 1.5e-12 1.6e-12 1.69e-12 1.87e-12 2.04e-12 2.2e-12 2.35e-12 2.49e-12 2.63e-12 2.76e-12 2.89e-12 3.02e-12 3.15e-12 
10 02 09  03 02 02 1.88e-12 1.91e-12 1.97e-12 2.1e-12 2.23e-12 2.36e-12 2.47e-12 2.58e-12 2.68e-12 2.78e-12 2.88e-12 3.06e-12 3.24e-12 3.42e-12 3.6e-12 3.78e-12 3.96e-12 4.14e-12 4.32e-12 4.5e-12 4.68e-12 
10 02 09  03 02 01 1.23e-12 1.22e-12 1.24e-12 1.29e-12 1.34e-12 1.39e-12 1.43e-12 1.47e-12 1.5e-12 1.53e-12 1.56e-12 1.61e-12 1.66e-12 1.71e-12 1.76e-12 1.81e-12 1.86e-12 1.91e-12 1.96e-12 2.01e-12 2.06e-12 
10 02 09  04 02 03 2.42e-12 2.39e-12 2.4e-12 2.45e-12 2.5e-12 2.55e-12 2.59e-12 2.62e-12 2.65e-12 2.68e-12 2.71e-12 2.77e-12 2.83e-12 2.91e-12 3e-12 3.11e-12 3.22e-12 3.34e-12 3.47e-12 3.62e-12 3.77e-12 
10 02 09  04 02 02 3.57e-12 3.59e-12 3.65e-12 3.79e-12 3.91e-12 4e-12 4.08e-12 4.15e-12 4.21e-12 4.28e-12 4.35e-12 4.49e-12 4.64e-12 4.8e-12 4.97e-12 5.15e-12 5.33e-12 5.52e-12 5.71e-12 5.9e-12 6.09e-12 
10 02 09  05 02 04 4.99e-12 4.94e-12 4.94e-12 5e-12 5.08e-12 5.18e-12 5.29e-12 5.41e-12 5.54e-12 5.67e-12 5.8e-12 6.07e-12 6.34e-12 6.6e-12 6.87e-12 7.13e-12 7.4e-12 7.66e-12 7.91e-12 8.17e-12 8.43e-12 
10 02 09  05 02 03 3.84e-12 3.75e-12 3.72e-12 3.71e-12 3.72e-12 3.74e-12 3.77e-12 3.79e-12 3.83e-12 3.86e-12 3.9e-12 3.98e-12 4.08e-12 4.18e-12 4.29e-12 4.41e-12 4.53e-12 4.65e-12 4.78e-12 4.92e-12 5.05e-12 
10 02 09  06 02 05 2.94e-12 2.88e-12 2.87e-12 2.91e-12 3e-12 3.11e-12 3.23e-12 3.37e-12 3.51e-12 3.67e-12 3.83e-12 4.16e-12 4.51e-12 4.86e-12 5.22e-12 5.58e-12 5.94e-12 6.29e-12 6.63e-12 6.97e-12 7.3e-12 
10 02 09  06 02 04 5.6e-12 5.48e-12 5.41e-12 5.33e-12 5.27e-12 5.25e-12 5.25e-12 5.28e-12 5.32e-12 5.39e-12 5.46e-12 5.64e-12 5.84e-12 6.04e-12 6.25e-12 6.46e-12 6.66e-12 6.85e-12 7.03e-12 7.2e-12 7.36e-12 
10 02 09  07 02 06 5.76e-12 5.9e-12 6.12e-12 6.59e-12 7.06e-12 7.49e-12 7.89e-12 8.24e-12 8.56e-12 8.85e-12 9.11e-12 9.56e-12 9.94e-12 1.03e-11 1.05e-11 1.08e-11 1.1e-11 1.12e-11 1.13e-11 1.15e-11 1.16e-11 
10 02 09  07 02 05 2.77e-12 2.71e-12 2.7e-12 2.76e-12 2.87e-12 3.02e-12 3.18e-12 3.35e-12 3.52e-12 3.69e-12 3.87e-12 4.23e-12 4.59e-12 4.96e-12 5.34e-12 5.73e-12 6.12e-12 6.53e-12 6.94e-12 7.35e-12 7.78e-12 
10 02 09  08 02 07 5.07e-12 5.37e-12 5.73e-12 6.5e-12 7.33e-12 8.21e-12 9.11e-12 1e-11 1.09e-11 1.18e-11 1.27e-11 1.43e-11 1.58e-11 1.72e-11 1.85e-11 1.97e-11 2.08e-11 2.18e-11 2.27e-11 2.35e-11 2.42e-11 
10 02 09  08 02 06 2.58e-12 2.57e-12 2.58e-12 2.65e-12 2.77e-12 2.92e-12 3.1e-12 3.29e-12 3.49e-12 3.7e-12 3.91e-12 4.32e-12 4.71e-12 5.09e-12 5.44e-12 5.76e-12 6.07e-12 6.36e-12 6.62e-12 6.88e-12 7.11e-12 
10 02 09  09 02 08 5.16e-11 5.15e-11 5.16e-11 5.19e-11 5.21e-11 5.22e-11 5.23e-11 5.23e-11 5.23e-11 5.23e-11 5.23e-11 5.22e-11 5.22e-11 5.21e-11 5.2e-11 5.2e-11 5.19e-11 5.19e-11 5.18e-11 5.18e-11 5.17e-11 
10 02 09  09 02 07 2.8e-12 3e-12 3.22e-12 3.66e-12 4.1e-12 4.52e-12 4.91e-12 5.28e-12 5.62e-12 5.94e-12 6.25e-12 6.82e-12 7.35e-12 7.84e-12 8.3e-12 8.74e-12 9.17e-12 9.58e-12 9.97e-12 1.04e-11 1.07e-11 
10 02 09  10 02 09 0 0 0 0 0 0 0 0 0 0 0 0 0 0 0 0 0 0 0 0 0 
10 02 09  10 02 08 7.01e-12 7.28e-12 7.36e-12 7.44e-12 7.53e-12 7.67e-12 7.85e-12 8.05e-12 8.27e-12 8.51e-12 8.76e-12 9.26e-12 9.76e-12 1.03e-11 1.07e-11 1.12e-11 1.16e-11 1.2e-11 1.24e-11 1.27e-11 1.31e-11 
10 02 09  11 02 10 1.28e-12 4.54e-12 8.59e-12 1.63e-11 2.25e-11 2.74e-11 3.12e-11 3.42e-11 3.66e-11 3.86e-11 4.03e-11 4.29e-11 4.49e-11 4.65e-11 4.78e-11 4.88e-11 4.98e-11 5.06e-11 5.13e-11 5.19e-11 5.24e-11 
10 02 09  11 02 09 1.7e-13 6e-13 1.14e-12 2.19e-12 3.05e-12 3.74e-12 4.32e-12 4.82e-12 5.26e-12 5.66e-12 6.02e-12 6.68e-12 7.27e-12 7.8e-12 8.31e-12 8.79e-12 9.29e-12 9.7e-12 1.01e-11 1.05e-11 1.09e-11 
10 02 09  04 04 01 2.1e-13 2.8e-13 3.7e-13 5.7e-13 8e-13 1.03e-12 1.27e-12 1.5e-12 1.73e-12 1.93e-12 2.14e-12 2.51e-12 2.85e-12 3.17e-12 3.46e-12 3.75e-12 4.02e-12 4.28e-12 4.53e-12 4.76e-12 5.02e-12 
10 02 09  04 04 00 2.9e-13 3.8e-13 5e-13 7.4e-13 9.9e-13 1.25e-12 1.49e-12 1.71e-12 1.92e-12 2.13e-12 2.32e-12 2.68e-12 3.02e-12 3.33e-12 3.62e-12 3.89e-12 4.15e-12 4.39e-12 4.6e-12 4.85e-12 5.06e-12 
10 02 09  05 04 02 3.7e-13 4.8e-13 5.8e-13 7.9e-13 9.8e-13 1.16e-12 1.33e-12 1.48e-12 1.62e-12 1.76e-12 1.89e-12 2.12e-12 2.35e-12 2.55e-12 2.73e-12 2.91e-12 3.06e-12 3.22e-12 3.36e-12 3.49e-12 3.61e-12 
10 02 09  05 04 01 3.1e-13 4.1e-13 5e-13 6.8e-13 8.3e-13 9.7e-13 1.1e-12 1.21e-12 1.33e-12 1.43e-12 1.53e-12 1.72e-12 1.89e-12 2.05e-12 2.2e-12 2.34e-12 2.47e-12 2.59e-12 2.71e-12 2.82e-12 2.93e-12 
10 02 09  06 04 03 9e-14 1.8e-13 2.8e-13 4.5e-13 6.1e-13 7.5e-13 9e-13 1.03e-12 1.16e-12 1.28e-12 1.4e-12 1.61e-12 1.81e-12 1.98e-12 2.15e-12 2.31e-12 2.45e-12 2.59e-12 2.73e-12 2.86e-12 2.99e-12 
10 02 09  06 04 02 1.3e-13 2.9e-13 4.4e-13 7.3e-13 9.8e-13 1.19e-12 1.38e-12 1.56e-12 1.72e-12 1.86e-12 2e-12 2.25e-12 2.47e-12 2.66e-12 2.83e-12 2.99e-12 3.13e-12 3.26e-12 3.37e-12 3.47e-12 3.57e-12 
10 02 09  07 04 04 2e-14 1e-13 2.2e-13 5.1e-13 8.1e-13 1.08e-12 1.33e-12 1.56e-12 1.77e-12 1.97e-12 2.16e-12 2.49e-12 2.79e-12 3.06e-12 3.31e-12 3.53e-12 3.74e-12 3.94e-12 4.13e-12 4.3e-12 4.46e-12 
10 02 09  07 04 03 1e-14 5e-14 1.1e-13 2.5e-13 4.1e-13 5.6e-13 7.1e-13 8.6e-13 1.01e-12 1.15e-12 1.28e-12 1.54e-12 1.77e-12 1.99e-12 2.18e-12 2.37e-12 2.55e-12 2.72e-12 2.88e-12 3.04e-12 3.19e-12 
10 02 08  00 00 00 1.4e-13 1.4e-13 1.5e-13 1.6e-13 1.6e-13 1.7e-13 1.7e-13 1.8e-13 1.8e-13 1.9e-13 1.9e-13 2e-13 2.1e-13 2.2e-13 2.3e-13 2.4e-13 2.5e-13 2.6e-13 2.7e-13 2.8e-13 2.8e-13 
10 02 08  01 00 01 2.4e-13 2.4e-13 2.5e-13 2.5e-13 2.6e-13 2.7e-13 2.8e-13 3e-13 3.2e-13 3.4e-13 3.7e-13 4.2e-13 4.7e-13 5.2e-13 5.7e-13 6.2e-13 6.6e-13 7e-13 7.4e-13 7.8e-13 8.2e-13 
10 02 08  02 00 02 6.5e-13 6.5e-13 6.6e-13 6.8e-13 7e-13 7.1e-13 7.3e-13 7.4e-13 7.6e-13 7.8e-13 8e-13 8.4e-13 8.8e-13 9.2e-13 9.6e-13 1e-12 1.04e-12 1.07e-12 1.11e-12 1.14e-12 1.17e-12 
10 02 08  03 00 03 5.9e-13 6e-13 6.3e-13 6.8e-13 7.2e-13 7.7e-13 8.2e-13 8.8e-13 9.3e-13 9.9e-13 1.04e-12 1.15e-12 1.26e-12 1.37e-12 1.47e-12 1.56e-12 1.64e-12 1.72e-12 1.8e-12 1.86e-12 1.93e-12 
10 02 08  04 00 04 1.18e-12 1.21e-12 1.25e-12 1.33e-12 1.4e-12 1.46e-12 1.51e-12 1.56e-12 1.61e-12 1.66e-12 1.71e-12 1.8e-12 1.9e-12 1.99e-12 2.08e-12 2.18e-12 2.27e-12 2.37e-12 2.47e-12 2.57e-12 2.67e-12 
10 02 08  05 00 05 1.94e-12 1.93e-12 1.95e-12 1.98e-12 2.02e-12 2.07e-12 2.13e-12 2.2e-12 2.27e-12 2.35e-12 2.43e-12 2.58e-12 2.74e-12 2.89e-12 3.03e-12 3.16e-12 3.29e-12 3.42e-12 3.54e-12 3.66e-12 3.78e-12 
10 02 08  06 00 06 1.86e-12 1.86e-12 1.87e-12 1.91e-12 1.99e-12 2.09e-12 2.2e-12 2.32e-12 2.44e-12 2.56e-12 2.68e-12 2.91e-12 3.12e-12 3.33e-12 3.53e-12 3.72e-12 3.9e-12 4.08e-12 4.26e-12 4.44e-12 4.61e-12 
10 02 08  07 00 07 2.76e-12 2.74e-12 2.74e-12 2.77e-12 2.8e-12 2.84e-12 2.88e-12 2.92e-12 2.96e-12 3e-12 3.04e-12 3.12e-12 3.2e-12 3.29e-12 3.39e-12 3.49e-12 3.6e-12 3.72e-12 3.85e-12 3.99e-12 4.12e-12 
10 02 08  08 00 08 3.91e-12 3.98e-12 4.11e-12 4.35e-12 4.55e-12 4.72e-12 4.85e-12 4.96e-12 5.05e-12 5.14e-12 5.21e-12 5.35e-12 5.48e-12 5.6e-12 5.73e-12 5.85e-12 5.97e-12 6.09e-12 6.2e-12 6.31e-12 6.41e-12 
10 02 08  09 00 09 1.13e-11 1.11e-11 1.1e-11 1.08e-11 1.06e-11 1.04e-11 1.02e-11 1e-11 9.88e-12 9.76e-12 9.67e-12 9.54e-12 9.48e-12 9.47e-12 9.5e-12 9.56e-12 9.65e-12 9.75e-12 9.87e-12 1e-11 1.01e-11 
10 02 08  10 00 10 1.48e-11 1.45e-11 1.43e-11 1.43e-11 1.45e-11 1.47e-11 1.51e-11 1.54e-11 1.58e-11 1.62e-11 1.66e-11 1.73e-11 1.8e-11 1.87e-11 1.93e-11 1.99e-11 2.04e-11 2.09e-11 2.14e-11 2.19e-11 2.23e-11 
10 02 08  11 00 11 3.36e-11 3.31e-11 3.22e-11 3.04e-11 2.9e-11 2.79e-11 2.7e-11 2.63e-11 2.58e-11 2.53e-11 2.5e-11 2.44e-11 2.4e-11 2.38e-11 2.36e-11 2.35e-11 2.34e-11 2.34e-11 2.34e-11 2.35e-11 2.35e-11 
10 02 08  12 00 12 5.4e-13 1.64e-12 2.87e-12 5e-12 6.56e-12 7.67e-12 8.49e-12 9.1e-12 9.57e-12 9.95e-12 1.03e-11 1.07e-11 1.11e-11 1.14e-11 1.17e-11 1.2e-11 1.22e-11 1.25e-11 1.27e-11 1.29e-11 1.31e-11 
10 02 08  02 02 01 5.7e-13 5.8e-13 5.9e-13 6.2e-13 6.4e-13 6.6e-13 6.9e-13 7.1e-13 7.3e-13 7.5e-13 7.8e-13 8.2e-13 8.6e-13 9e-13 9.5e-13 9.9e-13 1.03e-12 1.08e-12 1.12e-12 1.17e-12 1.22e-12 
10 02 08  02 02 00 7e-13 7.2e-13 7.6e-13 8.4e-13 9.2e-13 9.9e-13 1.06e-12 1.11e-12 1.16e-12 1.21e-12 1.25e-12 1.33e-12 1.41e-12 1.48e-12 1.55e-12 1.62e-12 1.7e-12 1.77e-12 1.85e-12 1.93e-12 2.01e-12 
10 02 08  03 02 02 1.11e-12 1.11e-12 1.13e-12 1.16e-12 1.2e-12 1.25e-12 1.29e-12 1.33e-12 1.37e-12 1.42e-12 1.47e-12 1.56e-12 1.66e-12 1.77e-12 1.89e-12 2.01e-12 2.14e-12 2.28e-12 2.42e-12 2.58e-12 2.74e-12 
10 02 08  03 02 01 7.7e-13 8.1e-13 8.5e-13 9.4e-13 1.01e-12 1.08e-12 1.14e-12 1.19e-12 1.25e-12 1.3e-12 1.35e-12 1.44e-12 1.53e-12 1.62e-12 1.71e-12 1.8e-12 1.88e-12 1.96e-12 2.04e-12 2.12e-12 2.19e-12 
10 02 08  04 02 03 1.13e-12 1.14e-12 1.18e-12 1.25e-12 1.34e-12 1.43e-12 1.52e-12 1.61e-12 1.69e-12 1.78e-12 1.87e-12 2.04e-12 2.21e-12 2.38e-12 2.54e-12 2.69e-12 2.84e-12 2.99e-12 3.12e-12 3.26e-12 3.39e-12 
10 02 08  04 02 02 1.32e-12 1.34e-12 1.39e-12 1.49e-12 1.6e-12 1.69e-12 1.77e-12 1.84e-12 1.91e-12 1.98e-12 2.04e-12 2.17e-12 2.31e-12 2.45e-12 2.61e-12 2.77e-12 2.94e-12 3.11e-12 3.29e-12 3.48e-12 3.66e-12 
10 02 08  05 02 04 1.63e-12 1.64e-12 1.68e-12 1.78e-12 1.89e-12 1.99e-12 2.09e-12 2.19e-12 2.28e-12 2.36e-12 2.44e-12 2.6e-12 2.76e-12 2.91e-12 3.07e-12 3.23e-12 3.4e-12 3.56e-12 3.74e-12 3.91e-12 4.09e-12 
10 02 08  05 02 03 2.94e-12 2.96e-12 3.01e-12 3.12e-12 3.24e-12 3.37e-12 3.51e-12 3.66e-12 3.82e-12 3.97e-12 4.13e-12 4.44e-12 4.74e-12 5.03e-12 5.31e-12 5.57e-12 5.82e-12 6.06e-12 6.29e-12 6.51e-12 6.73e-12 
10 02 08  06 02 05 4.53e-12 4.55e-12 4.65e-12 4.9e-12 5.13e-12 5.35e-12 5.55e-12 5.74e-12 5.92e-12 6.11e-12 6.29e-12 6.66e-12 7.03e-12 7.41e-12 7.79e-12 8.17e-12 8.55e-12 8.93e-12 9.31e-12 9.69e-12 1.01e-11 
10 02 08  06 02 04 2.75e-12 2.7e-12 2.69e-12 2.71e-12 2.76e-12 2.83e-12 2.93e-12 3.04e-12 3.16e-12 3.3e-12 3.45e-12 3.77e-12 4.11e-12 4.47e-12 4.82e-12 5.18e-12 5.54e-12 5.88e-12 6.22e-12 6.56e-12 6.88e-12 
10 02 08  07 02 06 5.6e-12 5.56e-12 5.59e-12 5.72e-12 5.87e-12 6.02e-12 6.16e-12 6.29e-12 6.42e-12 6.54e-12 6.66e-12 6.9e-12 7.15e-12 7.4e-12 7.67e-12 7.94e-12 8.22e-12 8.5e-12 8.78e-12 9.07e-12 9.35e-12 
10 02 08  07 02 05 8.34e-12 8.37e-12 8.51e-12 8.91e-12 9.33e-12 9.73e-12 1.01e-11 1.05e-11 1.08e-11 1.11e-11 1.14e-11 1.19e-11 1.24e-11 1.27e-11 1.31e-11 1.34e-11 1.36e-11 1.39e-11 1.41e-11 1.42e-11 1.44e-11 
10 02 08  08 02 07 1.15e-11 1.13e-11 1.12e-11 1.12e-11 1.13e-11 1.15e-11 1.17e-11 1.19e-11 1.21e-11 1.23e-11 1.25e-11 1.3e-11 1.34e-11 1.39e-11 1.43e-11 1.47e-11 1.51e-11 1.55e-11 1.59e-11 1.63e-11 1.67e-11 
10 02 08  08 02 06 4.82e-12 4.96e-12 5.17e-12 5.73e-12 6.41e-12 7.17e-12 7.97e-12 8.78e-12 9.59e-12 1.04e-11 1.12e-11 1.27e-11 1.41e-11 1.53e-11 1.65e-11 1.76e-11 1.87e-11 1.96e-11 2.05e-11 2.12e-11 2.2e-11 
10 02 08  09 02 08 7.49e-12 7.4e-12 7.36e-12 7.36e-12 7.45e-12 7.59e-12 7.76e-12 7.95e-12 8.15e-12 8.37e-12 8.59e-12 9.06e-12 9.53e-12 1e-11 1.05e-11 1.1e-11 1.15e-11 1.2e-11 1.25e-11 1.3e-11 1.35e-11 
10 02 08  09 02 07 4.64e-11 4.65e-11 4.68e-11 4.72e-11 4.74e-11 4.75e-11 4.76e-11 4.75e-11 4.75e-11 4.74e-11 4.73e-11 4.72e-11 4.71e-11 4.71e-11 4.71e-11 4.71e-11 4.72e-11 4.73e-11 4.74e-11 4.75e-11 4.76e-11 
10 02 08  10 02 09 7.01e-12 7.28e-12 7.36e-12 7.44e-12 7.53e-12 7.67e-12 7.85e-12 8.05e-12 8.27e-12 8.51e-12 8.76e-12 9.26e-12 9.76e-12 1.03e-11 1.07e-11 1.12e-11 1.16e-11 1.2e-11 1.24e-11 1.27e-11 1.31e-11 
10 02 08  10 02 08 0 0 0 0 0 0 0 0 0 0 0 0 0 0 0 0 0 0 0 0 0 
10 02 08  11 02 10 7e-14 2.7e-13 5.4e-13 1.13e-12 1.71e-12 2.24e-12 2.74e-12 3.19e-12 3.62e-12 4.02e-12 4.39e-12 5.11e-12 5.78e-12 6.41e-12 7.02e-12 7.59e-12 8.16e-12 8.7e-12 9.22e-12 9.74e-12 1.02e-11 
10 02 08  11 02 09 1.12e-12 4.02e-12 7.66e-12 1.47e-11 2.04e-11 2.49e-11 2.86e-11 3.15e-11 3.4e-11 3.61e-11 3.79e-11 4.09e-11 4.33e-11 4.52e-11 4.69e-11 4.84e-11 4.96e-11 5.07e-11 5.17e-11 5.25e-11 5.33e-11 
10 02 08  04 04 01 2.4e-13 2.9e-13 3.4e-13 4.3e-13 5.1e-13 5.8e-13 6.4e-13 6.9e-13 7.4e-13 7.9e-13 8.4e-13 9.4e-13 1.03e-12 1.13e-12 1.23e-12 1.32e-12 1.42e-12 1.52e-12 1.61e-12 1.71e-12 1.8e-12 
10 02 08  04 04 00 1.8e-13 2.2e-13 2.5e-13 3.2e-13 3.8e-13 4.4e-13 5e-13 5.5e-13 6e-13 6.5e-13 6.9e-13 7.7e-13 8.5e-13 9.2e-13 9.9e-13 1.06e-12 1.12e-12 1.19e-12 1.25e-12 1.32e-12 1.38e-12 
10 02 08  05 04 02 1.7e-13 2.3e-13 2.8e-13 3.8e-13 4.8e-13 5.7e-13 6.6e-13 7.5e-13 8.3e-13 9.1e-13 9.9e-13 1.14e-12 1.28e-12 1.42e-12 1.55e-12 1.67e-12 1.79e-12 1.91e-12 2.02e-12 2.13e-12 2.22e-12 
10 02 08  05 04 01 1.9e-13 2.4e-13 2.9e-13 3.9e-13 5e-13 6.2e-13 7.5e-13 8.7e-13 9.8e-13 1.1e-12 1.2e-12 1.41e-12 1.59e-12 1.77e-12 1.93e-12 2.08e-12 2.23e-12 2.36e-12 2.49e-12 2.61e-12 2.73e-12 
10 02 08  06 04 03 1.6e-13 3.6e-13 5.5e-13 9e-13 1.21e-12 1.47e-12 1.7e-12 1.91e-12 2.1e-12 2.26e-12 2.42e-12 2.7e-12 2.94e-12 3.16e-12 3.36e-12 3.55e-12 3.73e-12 3.9e-12 4.06e-12 4.23e-12 4.39e-12 
10 02 08  06 04 02 7e-14 1.5e-13 2.4e-13 4.3e-13 6.2e-13 8.2e-13 1.01e-12 1.2e-12 1.38e-12 1.55e-12 1.71e-12 2.02e-12 2.3e-12 2.57e-12 2.82e-12 3.08e-12 3.31e-12 3.56e-12 3.79e-12 4.03e-12 4.27e-12 
10 02 08  07 04 04 2e-14 8e-14 1.7e-13 4e-13 6.3e-13 8.5e-13 1.06e-12 1.26e-12 1.45e-12 1.63e-12 1.8e-12 2.12e-12 2.43e-12 2.7e-12 2.96e-12 3.21e-12 3.44e-12 3.68e-12 3.9e-12 4.12e-12 4.34e-12 
10 02 08  07 04 03 2e-14 1.1e-13 2.5e-13 6e-13 9.9e-13 1.36e-12 1.72e-12 2.04e-12 2.35e-12 2.64e-12 2.9e-12 3.39e-12 3.84e-12 4.25e-12 4.63e-12 5e-12 5.35e-12 5.68e-12 6.02e-12 6.34e-12 6.66e-12 
11 02 10  00 00 00 0 0 0 0 0 0 0 0 0 0 0 0 0 0 0 0 0 0 0 0 0 
11 02 10  01 00 01 0 0 0 0 0 0 0 0 0 0 0 0 0 1e-14 1e-14 1e-14 1e-14 1e-14 1e-14 1e-14 1e-14 
11 02 10  02 00 02 6e-14 6e-14 6e-14 5e-14 5e-14 5e-14 5e-14 5e-14 5e-14 5e-14 5e-14 5e-14 5e-14 5e-14 6e-14 6e-14 6e-14 7e-14 7e-14 7e-14 8e-14 
11 02 10  03 00 03 1.8e-13 1.7e-13 1.7e-13 1.6e-13 1.5e-13 1.5e-13 1.5e-13 1.4e-13 1.4e-13 1.4e-13 1.5e-13 1.5e-13 1.6e-13 1.8e-13 1.9e-13 2.1e-13 2.3e-13 2.5e-13 2.8e-13 3e-13 3.3e-13 
11 02 10  04 00 04 5.6e-13 5.5e-13 5.5e-13 5.6e-13 5.7e-13 5.8e-13 5.8e-13 5.9e-13 6e-13 6.1e-13 6.2e-13 6.3e-13 6.5e-13 6.7e-13 6.9e-13 7.2e-13 7.5e-13 7.8e-13 8.1e-13 8.4e-13 8.8e-13 
11 02 10  05 00 05 1.05e-12 1.05e-12 1.06e-12 1.08e-12 1.1e-12 1.12e-12 1.13e-12 1.15e-12 1.16e-12 1.18e-12 1.19e-12 1.23e-12 1.27e-12 1.32e-12 1.37e-12 1.43e-12 1.5e-12 1.58e-12 1.67e-12 1.76e-12 1.85e-12 
11 02 10  06 00 06 2.45e-12 2.47e-12 2.52e-12 2.61e-12 2.7e-12 2.77e-12 2.84e-12 2.9e-12 2.95e-12 3e-12 3.04e-12 3.13e-12 3.21e-12 3.3e-12 3.38e-12 3.46e-12 3.55e-12 3.63e-12 3.72e-12 3.81e-12 3.89e-12 
11 02 10  07 00 07 5.2e-12 5.15e-12 5.15e-12 5.18e-12 5.2e-12 5.21e-12 5.23e-12 5.25e-12 5.27e-12 5.3e-12 5.33e-12 5.41e-12 5.51e-12 5.61e-12 5.72e-12 5.84e-12 5.96e-12 6.09e-12 6.21e-12 6.34e-12 6.48e-12 
11 02 10  08 00 08 7.31e-12 7.16e-12 7.1e-12 7.05e-12 7.03e-12 7.04e-12 7.07e-12 7.12e-12 7.19e-12 7.27e-12 7.36e-12 7.56e-12 7.78e-12 8.01e-12 8.25e-12 8.5e-12 8.75e-12 8.99e-12 9.24e-12 9.49e-12 9.74e-12 
11 02 10  09 00 09 1.31e-11 1.26e-11 1.23e-11 1.19e-11 1.15e-11 1.13e-11 1.11e-11 1.1e-11 1.09e-11 1.08e-11 1.08e-11 1.08e-11 1.09e-11 1.11e-11 1.12e-11 1.14e-11 1.15e-11 1.17e-11 1.19e-11 1.21e-11 1.23e-11 
11 02 10  10 00 10 8.62e-12 8.43e-12 8.34e-12 8.34e-12 8.47e-12 8.67e-12 8.91e-12 9.18e-12 9.45e-12 9.74e-12 1e-11 1.06e-11 1.11e-11 1.16e-11 1.21e-11 1.26e-11 1.31e-11 1.35e-11 1.39e-11 1.44e-11 1.48e-11 
11 02 10  11 00 11 9.65e-12 9.41e-12 9.26e-12 9.07e-12 8.97e-12 8.9e-12 8.87e-12 8.85e-12 8.85e-12 8.85e-12 8.87e-12 8.92e-12 9.01e-12 9.11e-12 9.23e-12 9.36e-12 9.5e-12 9.66e-12 9.82e-12 9.99e-12 1.02e-11 
11 02 10  12 00 12 7.9e-12 7.9e-12 7.81e-12 7.61e-12 7.44e-12 7.33e-12 7.26e-12 7.23e-12 7.23e-12 7.25e-12 7.3e-12 7.45e-12 7.66e-12 7.92e-12 8.21e-12 8.54e-12 8.89e-12 9.26e-12 9.64e-12 1e-11 1.05e-11 
11 02 10  02 02 01 5e-13 4.9e-13 4.9e-13 5e-13 5.2e-13 5.4e-13 5.7e-13 5.9e-13 6.3e-13 6.6e-13 7e-13 7.7e-13 8.4e-13 9.2e-13 9.8e-13 1.05e-12 1.11e-12 1.17e-12 1.22e-12 1.28e-12 1.32e-12 
11 02 10  02 02 00 3.4e-13 3.3e-13 3.3e-13 3.1e-13 3.1e-13 3e-13 3e-13 3.1e-13 3.2e-13 3.3e-13 3.5e-13 3.9e-13 4.3e-13 4.8e-13 5.3e-13 5.8e-13 6.3e-13 6.8e-13 7.3e-13 7.7e-13 8.1e-13 
11 02 10  03 02 02 5.6e-13 5.6e-13 5.6e-13 5.9e-13 6.2e-13 6.6e-13 7e-13 7.4e-13 7.9e-13 8.4e-13 8.8e-13 9.7e-13 1.06e-12 1.14e-12 1.22e-12 1.29e-12 1.36e-12 1.43e-12 1.5e-12 1.56e-12 1.63e-12 
11 02 10  03 02 01 8.2e-13 8.2e-13 8.5e-13 9.1e-13 9.8e-13 1.05e-12 1.12e-12 1.19e-12 1.26e-12 1.33e-12 1.39e-12 1.52e-12 1.64e-12 1.75e-12 1.85e-12 1.95e-12 2.04e-12 2.14e-12 2.22e-12 2.31e-12 2.39e-12 
11 02 10  04 02 03 1.81e-12 1.83e-12 1.87e-12 1.99e-12 2.11e-12 2.21e-12 2.31e-12 2.41e-12 2.49e-12 2.57e-12 2.65e-12 2.79e-12 2.92e-12 3.05e-12 3.17e-12 3.29e-12 3.41e-12 3.53e-12 3.64e-12 3.75e-12 3.86e-12 
11 02 10  04 02 02 1.3e-12 1.32e-12 1.35e-12 1.44e-12 1.53e-12 1.62e-12 1.71e-12 1.78e-12 1.86e-12 1.93e-12 1.99e-12 2.11e-12 2.22e-12 2.32e-12 2.42e-12 2.51e-12 2.59e-12 2.67e-12 2.75e-12 2.83e-12 2.9e-12 
11 02 10  05 02 04 2.55e-12 2.52e-12 2.54e-12 2.61e-12 2.69e-12 2.77e-12 2.84e-12 2.9e-12 2.96e-12 3.01e-12 3.06e-12 3.16e-12 3.25e-12 3.34e-12 3.43e-12 3.52e-12 3.61e-12 3.7e-12 3.79e-12 3.88e-12 3.98e-12 
11 02 10  05 02 03 3.26e-12 3.29e-12 3.35e-12 3.49e-12 3.62e-12 3.72e-12 3.82e-12 3.91e-12 3.99e-12 4.06e-12 4.13e-12 4.28e-12 4.42e-12 4.56e-12 4.69e-12 4.83e-12 4.97e-12 5.1e-12 5.23e-12 5.36e-12 5.48e-12 
11 02 10  06 02 05 4.31e-12 4.24e-12 4.23e-12 4.26e-12 4.33e-12 4.41e-12 4.5e-12 4.6e-12 4.7e-12 4.82e-12 4.93e-12 5.16e-12 5.39e-12 5.61e-12 5.83e-12 6.05e-12 6.25e-12 6.46e-12 6.65e-12 6.84e-12 7.03e-12 
11 02 10  06 02 04 3.61e-12 3.58e-12 3.59e-12 3.67e-12 3.75e-12 3.82e-12 3.88e-12 3.94e-12 3.99e-12 4.04e-12 4.09e-12 4.18e-12 4.27e-12 4.37e-12 4.47e-12 4.57e-12 4.69e-12 4.8e-12 4.93e-12 5.06e-12 5.19e-12 
11 02 10  07 02 06 2.81e-12 2.72e-12 2.69e-12 2.69e-12 2.74e-12 2.8e-12 2.87e-12 2.96e-12 3.06e-12 3.16e-12 3.28e-12 3.52e-12 3.79e-12 4.08e-12 4.37e-12 4.67e-12 4.97e-12 5.27e-12 5.58e-12 5.88e-12 6.18e-12 
11 02 10  07 02 05 4.57e-12 4.51e-12 4.48e-12 4.47e-12 4.49e-12 4.52e-12 4.58e-12 4.66e-12 4.75e-12 4.85e-12 4.96e-12 5.2e-12 5.46e-12 5.72e-12 5.99e-12 6.26e-12 6.52e-12 6.78e-12 7.03e-12 7.28e-12 7.52e-12 
11 02 10  08 02 07 5.84e-12 6e-12 6.24e-12 6.77e-12 7.28e-12 7.75e-12 8.17e-12 8.56e-12 8.91e-12 9.23e-12 9.52e-12 1e-11 1.05e-11 1.09e-11 1.12e-11 1.15e-11 1.18e-11 1.2e-11 1.23e-11 1.25e-11 1.27e-11 
11 02 10  08 02 06 2.98e-12 2.91e-12 2.9e-12 2.94e-12 3.03e-12 3.13e-12 3.23e-12 3.34e-12 3.46e-12 3.57e-12 3.69e-12 3.94e-12 4.19e-12 4.46e-12 4.73e-12 5.02e-12 5.31e-12 5.61e-12 5.92e-12 6.24e-12 6.56e-12 
11 02 10  09 02 08 4.15e-12 4.44e-12 4.81e-12 5.57e-12 6.33e-12 7.1e-12 7.86e-12 8.63e-12 9.39e-12 1.01e-11 1.09e-11 1.23e-11 1.37e-11 1.51e-11 1.63e-11 1.75e-11 1.86e-11 1.97e-11 2.08e-11 2.17e-11 2.27e-11 
11 02 10  09 02 07 2.37e-12 2.38e-12 2.4e-12 2.47e-12 2.56e-12 2.67e-12 2.82e-12 2.98e-12 3.16e-12 3.35e-12 3.55e-12 3.96e-12 4.38e-12 4.79e-12 5.2e-12 5.59e-12 5.97e-12 6.34e-12 6.7e-12 7.05e-12 7.38e-12 
11 02 10  10 02 09 5.44e-11 5.37e-11 5.36e-11 5.37e-11 5.38e-11 5.4e-11 5.4e-11 5.4e-11 5.4e-11 5.4e-11 5.4e-11 5.4e-11 5.4e-11 5.4e-11 5.4e-11 5.4e-11 5.41e-11 5.42e-11 5.43e-11 5.44e-11 5.44e-11 
11 02 10  10 02 08 2.99e-12 3.15e-12 3.34e-12 3.73e-12 4.09e-12 4.42e-12 4.74e-12 5.05e-12 5.34e-12 5.62e-12 5.89e-12 6.43e-12 6.94e-12 7.44e-12 7.93e-12 8.4e-12 8.87e-12 9.32e-12 9.76e-12 1.02e-11 1.06e-11 
11 02 10  11 02 10 0 0 0 0 0 0 0 0 0 0 0 0 0 0 0 0 0 0 0 0 0 
11 02 10  11 02 09 6.66e-12 6.97e-12 7.12e-12 7.31e-12 7.51e-12 7.74e-12 8e-12 8.29e-12 8.6e-12 8.93e-12 9.26e-12 9.96e-12 1.07e-11 1.14e-11 1.21e-11 1.28e-11 1.35e-11 1.42e-11 1.49e-11 1.55e-11 1.62e-11 
11 02 10  04 04 01 4.2e-13 4.8e-13 5.6e-13 7.7e-13 1.01e-12 1.25e-12 1.48e-12 1.72e-12 1.94e-12 2.14e-12 2.34e-12 2.7e-12 3.01e-12 3.29e-12 3.53e-12 3.76e-12 3.95e-12 4.12e-12 4.28e-12 4.42e-12 4.54e-12 
11 02 10  04 04 00 3.4e-13 3.9e-13 4.7e-13 6.7e-13 9.1e-13 1.17e-12 1.43e-12 1.69e-12 1.94e-12 2.19e-12 2.43e-12 2.86e-12 3.25e-12 3.59e-12 3.91e-12 4.19e-12 4.45e-12 4.69e-12 4.92e-12 5.13e-12 5.3e-12 
11 02 10  05 04 02 7.1e-13 7.8e-13 8.8e-13 1.09e-12 1.32e-12 1.54e-12 1.75e-12 1.95e-12 2.14e-12 2.31e-12 2.48e-12 2.77e-12 3.03e-12 3.27e-12 3.48e-12 3.67e-12 3.85e-12 4.01e-12 4.16e-12 4.3e-12 4.42e-12 
11 02 10  05 04 01 7.7e-13 8.7e-13 9.8e-13 1.24e-12 1.49e-12 1.74e-12 1.95e-12 2.16e-12 2.34e-12 2.51e-12 2.67e-12 2.95e-12 3.19e-12 3.4e-12 3.59e-12 3.76e-12 3.91e-12 4.05e-12 4.18e-12 4.29e-12 4.4e-12 
11 02 10  06 04 03 6.6e-13 7.2e-13 7.9e-13 9.4e-13 1.11e-12 1.27e-12 1.43e-12 1.57e-12 1.72e-12 1.85e-12 1.98e-12 2.21e-12 2.43e-12 2.62e-12 2.8e-12 2.96e-12 3.12e-12 3.27e-12 3.42e-12 3.56e-12 3.7e-12 
11 02 10  06 04 02 6.7e-13 7.4e-13 8.2e-13 9.7e-13 1.13e-12 1.27e-12 1.42e-12 1.56e-12 1.69e-12 1.82e-12 1.94e-12 2.17e-12 2.38e-12 2.58e-12 2.78e-12 2.97e-12 3.16e-12 3.35e-12 3.54e-12 3.73e-12 3.93e-12 
11 02 10  07 04 04 3.5e-13 5e-13 6.2e-13 8.1e-13 9.7e-13 1.12e-12 1.26e-12 1.39e-12 1.51e-12 1.63e-12 1.75e-12 1.97e-12 2.19e-12 2.39e-12 2.59e-12 2.77e-12 2.95e-12 3.12e-12 3.29e-12 3.45e-12 3.61e-12 
11 02 10  07 04 03 5.4e-13 8e-13 1.01e-12 1.34e-12 1.58e-12 1.79e-12 1.96e-12 2.11e-12 2.24e-12 2.37e-12 2.49e-12 2.71e-12 2.92e-12 3.12e-12 3.3e-12 3.48e-12 3.65e-12 3.82e-12 3.98e-12 4.13e-12 4.28e-12 
11 02 09  00 00 00 2e-14 2e-14 3e-14 3e-14 3e-14 4e-14 4e-14 5e-14 5e-14 6e-14 6e-14 7e-14 8e-14 9e-14 1e-13 1.1e-13 1.2e-13 1.3e-13 1.3e-13 1.4e-13 1.5e-13 
11 02 09  01 00 01 2.3e-13 2.4e-13 2.5e-13 2.6e-13 2.7e-13 2.9e-13 3e-13 3.1e-13 3.2e-13 3.2e-13 3.3e-13 3.5e-13 3.6e-13 3.8e-13 3.9e-13 4.1e-13 4.2e-13 4.3e-13 4.5e-13 4.6e-13 4.7e-13 
11 02 09  02 00 02 2.8e-13 2.9e-13 2.9e-13 3e-13 3.1e-13 3.2e-13 3.3e-13 3.5e-13 3.7e-13 3.9e-13 4.1e-13 4.6e-13 5e-13 5.4e-13 5.8e-13 6.2e-13 6.6e-13 7e-13 7.4e-13 7.7e-13 8.1e-13 
11 02 09  03 00 03 5.7e-13 5.8e-13 6e-13 6.3e-13 6.6e-13 6.8e-13 7.1e-13 7.4e-13 7.6e-13 7.9e-13 8.1e-13 8.6e-13 9e-13 9.4e-13 9.8e-13 1.02e-12 1.06e-12 1.1e-12 1.14e-12 1.18e-12 1.22e-12 
11 02 09  04 00 04 4.6e-13 4.7e-13 4.9e-13 5.4e-13 5.9e-13 6.4e-13 6.9e-13 7.4e-13 8e-13 8.6e-13 9.2e-13 1.04e-12 1.16e-12 1.28e-12 1.39e-12 1.51e-12 1.63e-12 1.74e-12 1.86e-12 1.97e-12 2.08e-12 
11 02 09  05 00 05 9.9e-13 1.01e-12 1.05e-12 1.12e-12 1.18e-12 1.25e-12 1.3e-12 1.36e-12 1.42e-12 1.47e-12 1.52e-12 1.63e-12 1.72e-12 1.82e-12 1.92e-12 2.01e-12 2.11e-12 2.2e-12 2.3e-12 2.4e-12 2.51e-12 
11 02 09  06 00 06 1.81e-12 1.81e-12 1.82e-12 1.85e-12 1.88e-12 1.92e-12 1.98e-12 2.05e-12 2.13e-12 2.21e-12 2.3e-12 2.49e-12 2.68e-12 2.87e-12 3.06e-12 3.24e-12 3.43e-12 3.61e-12 3.78e-12 3.95e-12 4.12e-12 
11 02 09  07 00 07 1.63e-12 1.64e-12 1.67e-12 1.73e-12 1.82e-12 1.92e-12 2.04e-12 2.16e-12 2.28e-12 2.41e-12 2.54e-12 2.78e-12 3.02e-12 3.24e-12 3.45e-12 3.65e-12 3.85e-12 4.04e-12 4.23e-12 4.41e-12 4.59e-12 
11 02 09  08 00 08 2.93e-12 2.95e-12 2.99e-12 3.09e-12 3.19e-12 3.29e-12 3.41e-12 3.52e-12 3.63e-12 3.74e-12 3.85e-12 4.05e-12 4.25e-12 4.43e-12 4.61e-12 4.79e-12 4.96e-12 5.13e-12 5.29e-12 5.46e-12 5.63e-12 
11 02 09  09 00 09 4.25e-12 4.37e-12 4.53e-12 4.84e-12 5.12e-12 5.36e-12 5.58e-12 5.77e-12 5.95e-12 6.11e-12 6.26e-12 6.54e-12 6.78e-12 6.99e-12 7.18e-12 7.35e-12 7.51e-12 7.65e-12 7.78e-12 7.89e-12 7.99e-12 
11 02 09  10 00 10 1.23e-11 1.21e-11 1.21e-11 1.2e-11 1.19e-11 1.18e-11 1.17e-11 1.16e-11 1.15e-11 1.15e-11 1.15e-11 1.14e-11 1.14e-11 1.15e-11 1.15e-11 1.16e-11 1.16e-11 1.17e-11 1.18e-11 1.19e-11 1.2e-11 
11 02 09  11 00 11 1.56e-11 1.53e-11 1.51e-11 1.5e-11 1.5e-11 1.52e-11 1.54e-11 1.56e-11 1.59e-11 1.61e-11 1.64e-11 1.7e-11 1.75e-11 1.81e-11 1.86e-11 1.92e-11 1.97e-11 2.02e-11 2.06e-11 2.11e-11 2.15e-11 
11 02 09  12 00 12 3.72e-11 3.64e-11 3.54e-11 3.34e-11 3.17e-11 3.04e-11 2.93e-11 2.84e-11 2.77e-11 2.71e-11 2.66e-11 2.59e-11 2.55e-11 2.52e-11 2.5e-11 2.48e-11 2.48e-11 2.47e-11 2.47e-11 2.47e-11 2.48e-11 
11 02 09  02 02 01 5.1e-13 5.3e-13 5.6e-13 6.1e-13 6.7e-13 7.3e-13 7.8e-13 8.3e-13 8.8e-13 9.3e-13 9.7e-13 1.06e-12 1.15e-12 1.24e-12 1.32e-12 1.4e-12 1.47e-12 1.54e-12 1.61e-12 1.68e-12 1.74e-12 
11 02 09  02 02 00 2.7e-13 2.9e-13 3e-13 3.4e-13 3.7e-13 4e-13 4.3e-13 4.6e-13 4.9e-13 5.2e-13 5.5e-13 6e-13 6.6e-13 7.1e-13 7.7e-13 8.4e-13 9e-13 9.7e-13 1.04e-12 1.11e-12 1.19e-12 
11 02 09  03 02 02 6.3e-13 6.5e-13 6.7e-13 7.2e-13 7.6e-13 8e-13 8.3e-13 8.7e-13 9e-13 9.3e-13 9.7e-13 1.04e-12 1.11e-12 1.19e-12 1.27e-12 1.35e-12 1.44e-12 1.53e-12 1.62e-12 1.71e-12 1.8e-12 
11 02 09  03 02 01 6.4e-13 6.7e-13 7.1e-13 8.1e-13 9e-13 9.9e-13 1.07e-12 1.15e-12 1.22e-12 1.29e-12 1.35e-12 1.47e-12 1.59e-12 1.7e-12 1.81e-12 1.92e-12 2.03e-12 2.13e-12 2.24e-12 2.34e-12 2.44e-12 
11 02 09  04 02 03 1.14e-12 1.15e-12 1.17e-12 1.23e-12 1.29e-12 1.35e-12 1.41e-12 1.48e-12 1.54e-12 1.6e-12 1.66e-12 1.8e-12 1.93e-12 2.07e-12 2.21e-12 2.35e-12 2.48e-12 2.61e-12 2.74e-12 2.87e-12 2.99e-12 
11 02 09  04 02 02 6e-13 6.2e-13 6.6e-13 7.5e-13 8.3e-13 9.1e-13 9.8e-13 1.04e-12 1.11e-12 1.17e-12 1.23e-12 1.35e-12 1.47e-12 1.59e-12 1.7e-12 1.82e-12 1.93e-12 2.05e-12 2.16e-12 2.27e-12 2.39e-12 
11 02 09  05 02 04 1.09e-12 1.1e-12 1.13e-12 1.2e-12 1.27e-12 1.34e-12 1.41e-12 1.48e-12 1.55e-12 1.62e-12 1.69e-12 1.83e-12 1.97e-12 2.12e-12 2.28e-12 2.44e-12 2.6e-12 2.77e-12 2.93e-12 3.11e-12 3.28e-12 
11 02 09  05 02 03 1.25e-12 1.27e-12 1.31e-12 1.42e-12 1.54e-12 1.64e-12 1.74e-12 1.84e-12 1.93e-12 2.02e-12 2.1e-12 2.28e-12 2.46e-12 2.64e-12 2.82e-12 3.01e-12 3.2e-12 3.39e-12 3.58e-12 3.78e-12 3.97e-12 
11 02 09  06 02 05 1.82e-12 1.83e-12 1.87e-12 1.97e-12 2.09e-12 2.21e-12 2.33e-12 2.45e-12 2.56e-12 2.68e-12 2.78e-12 3e-12 3.21e-12 3.41e-12 3.62e-12 3.82e-12 4.02e-12 4.23e-12 4.43e-12 4.64e-12 4.84e-12 
11 02 09  06 02 04 2.76e-12 2.78e-12 2.83e-12 2.95e-12 3.07e-12 3.2e-12 3.34e-12 3.47e-12 3.62e-12 3.76e-12 3.9e-12 4.18e-12 4.46e-12 4.73e-12 4.98e-12 5.23e-12 5.47e-12 5.69e-12 5.91e-12 6.11e-12 6.31e-12 
11 02 09  07 02 06 4.29e-12 4.34e-12 4.44e-12 4.65e-12 4.86e-12 5.06e-12 5.24e-12 5.4e-12 5.56e-12 5.71e-12 5.85e-12 6.11e-12 6.37e-12 6.61e-12 6.84e-12 7.06e-12 7.27e-12 7.48e-12 7.69e-12 7.89e-12 8.09e-12 
11 02 09  07 02 05 2.92e-12 2.87e-12 2.86e-12 2.88e-12 2.93e-12 3e-12 3.08e-12 3.18e-12 3.28e-12 3.4e-12 3.52e-12 3.78e-12 4.05e-12 4.33e-12 4.61e-12 4.88e-12 5.14e-12 5.4e-12 5.64e-12 5.88e-12 6.1e-12 
11 02 09  08 02 07 5.4e-12 5.39e-12 5.44e-12 5.58e-12 5.71e-12 5.84e-12 5.96e-12 6.07e-12 6.17e-12 6.27e-12 6.38e-12 6.59e-12 6.81e-12 7.05e-12 7.3e-12 7.55e-12 7.82e-12 8.09e-12 8.37e-12 8.65e-12 8.93e-12 
11 02 09  08 02 06 9.04e-12 9.1e-12 9.28e-12 9.71e-12 1.02e-11 1.06e-11 1.1e-11 1.14e-11 1.18e-11 1.21e-11 1.24e-11 1.3e-11 1.36e-11 1.4e-11 1.44e-11 1.48e-11 1.51e-11 1.54e-11 1.56e-11 1.58e-11 1.6e-11 
11 02 09  09 02 08 1.07e-11 1.06e-11 1.06e-11 1.07e-11 1.08e-11 1.09e-11 1.11e-11 1.14e-11 1.16e-11 1.19e-11 1.22e-11 1.28e-11 1.34e-11 1.4e-11 1.46e-11 1.52e-11 1.57e-11 1.62e-11 1.66e-11 1.7e-11 1.74e-11 
11 02 09  09 02 07 4.28e-12 4.42e-12 4.6e-12 5.03e-12 5.51e-12 6.03e-12 6.57e-12 7.12e-12 7.67e-12 8.21e-12 8.74e-12 9.77e-12 1.07e-11 1.16e-11 1.25e-11 1.33e-11 1.41e-11 1.48e-11 1.55e-11 1.61e-11 1.68e-11 
11 02 09  10 02 09 7.16e-12 7.11e-12 7.12e-12 7.19e-12 7.27e-12 7.37e-12 7.49e-12 7.62e-12 7.76e-12 7.92e-12 8.07e-12 8.4e-12 8.73e-12 9.06e-12 9.39e-12 9.73e-12 1.01e-11 1.04e-11 1.07e-11 1.1e-11 1.13e-11 
11 02 09  10 02 08 4.79e-11 4.76e-11 4.78e-11 4.82e-11 4.86e-11 4.91e-11 4.95e-11 4.98e-11 5.02e-11 5.05e-11 5.08e-11 5.14e-11 5.2e-11 5.25e-11 5.3e-11 5.35e-11 5.39e-11 5.43e-11 5.47e-11 5.5e-11 5.53e-11 
11 02 09  11 02 10 6.66e-12 6.97e-12 7.12e-12 7.31e-12 7.51e-12 7.74e-12 8e-12 8.29e-12 8.6e-12 8.93e-12 9.26e-12 9.96e-12 1.07e-11 1.14e-11 1.21e-11 1.28e-11 1.35e-11 1.42e-11 1.49e-11 1.55e-11 1.62e-11 
11 02 09  11 02 09 0 0 0 0 0 0 0 0 0 0 0 0 0 0 0 0 0 0 0 0 0 
11 02 09  04 04 01 2.4e-13 2.6e-13 3e-13 3.7e-13 4.4e-13 5.2e-13 5.8e-13 6.5e-13 7e-13 7.5e-13 8e-13 8.8e-13 9.6e-13 1.02e-12 1.09e-12 1.16e-12 1.22e-12 1.29e-12 1.36e-12 1.43e-12 1.5e-12 
11 02 09  04 04 00 3.2e-13 3.5e-13 3.7e-13 4.4e-13 5e-13 5.6e-13 6e-13 6.5e-13 6.9e-13 7.3e-13 7.7e-13 8.4e-13 9.1e-13 9.8e-13 1.07e-12 1.16e-12 1.26e-12 1.37e-12 1.49e-12 1.62e-12 1.75e-12 
11 02 09  05 04 02 2.7e-13 3.1e-13 3.6e-13 4.7e-13 5.9e-13 7e-13 8.1e-13 9.1e-13 9.9e-13 1.08e-12 1.16e-12 1.31e-12 1.44e-12 1.58e-12 1.71e-12 1.85e-12 1.97e-12 2.11e-12 2.25e-12 2.38e-12 2.53e-12 
11 02 09  05 04 01 4.1e-13 4.1e-13 4.2e-13 4.5e-13 5e-13 5.6e-13 6.2e-13 6.8e-13 7.5e-13 8.1e-13 8.8e-13 1.01e-12 1.14e-12 1.26e-12 1.38e-12 1.5e-12 1.62e-12 1.73e-12 1.85e-12 1.97e-12 2.1e-12 
11 02 09  06 04 03 4e-13 4.7e-13 5.4e-13 7e-13 8.7e-13 1.04e-12 1.2e-12 1.35e-12 1.48e-12 1.61e-12 1.74e-12 1.96e-12 2.17e-12 2.37e-12 2.57e-12 2.76e-12 2.95e-12 3.13e-12 3.32e-12 3.51e-12 3.69e-12 
11 02 09  06 04 02 5e-13 5.4e-13 5.9e-13 7e-13 8.3e-13 9.7e-13 1.11e-12 1.25e-12 1.38e-12 1.5e-12 1.63e-12 1.86e-12 2.08e-12 2.28e-12 2.48e-12 2.66e-12 2.83e-12 3e-12 3.16e-12 3.32e-12 3.47e-12 
11 02 09  07 04 04 7e-13 1.03e-12 1.3e-12 1.75e-12 2.11e-12 2.41e-12 2.66e-12 2.89e-12 3.08e-12 3.26e-12 3.42e-12 3.71e-12 3.97e-12 4.21e-12 4.43e-12 4.63e-12 4.82e-12 5.01e-12 5.18e-12 5.35e-12 5.51e-12 
11 02 09  07 04 03 4e-13 5.7e-13 7.1e-13 9.4e-13 1.15e-12 1.35e-12 1.55e-12 1.74e-12 1.93e-12 2.12e-12 2.29e-12 2.64e-12 2.95e-12 3.25e-12 3.53e-12 3.8e-12 4.05e-12 4.3e-12 4.54e-12 4.78e-12 5.02e-12 
04 04 01  00 00 00 0 0 0 0 0 0 0 0 0 0 0 0 0 0 0 0 0 0 0 0 0 
04 04 01  01 00 01 2.4e-13 2.3e-13 2.4e-13 2.6e-13 2.8e-13 3.1e-13 3.4e-13 3.6e-13 3.9e-13 4.2e-13 4.4e-13 4.9e-13 5.4e-13 5.9e-13 6.4e-13 6.8e-13 7.3e-13 7.7e-13 8.2e-13 8.7e-13 9.1e-13 
04 04 01  02 00 02 3.3e-13 3e-13 3e-13 3e-13 3e-13 3.2e-13 3.4e-13 3.6e-13 3.8e-13 4e-13 4.3e-13 4.7e-13 5.1e-13 5.6e-13 6e-13 6.5e-13 6.9e-13 7.4e-13 7.8e-13 8.3e-13 8.8e-13 
04 04 01  03 00 03 3.6e-13 3.5e-13 3.6e-13 3.8e-13 4.1e-13 4.6e-13 5e-13 5.4e-13 5.9e-13 6.3e-13 6.8e-13 7.6e-13 8.5e-13 9.3e-13 1.02e-12 1.11e-12 1.2e-12 1.29e-12 1.38e-12 1.47e-12 1.57e-12 
04 04 01  04 00 04 8.6e-13 8.2e-13 8.1e-13 8.3e-13 8.6e-13 9.1e-13 9.6e-13 1.01e-12 1.06e-12 1.12e-12 1.18e-12 1.3e-12 1.41e-12 1.53e-12 1.64e-12 1.74e-12 1.84e-12 1.94e-12 2.03e-12 2.12e-12 2.21e-12 
04 04 01  05 00 05 1.04e-12 1.01e-12 1.01e-12 1.07e-12 1.14e-12 1.22e-12 1.31e-12 1.39e-12 1.48e-12 1.56e-12 1.64e-12 1.8e-12 1.94e-12 2.08e-12 2.2e-12 2.32e-12 2.43e-12 2.53e-12 2.63e-12 2.72e-12 2.81e-12 
04 04 01  06 00 06 1.46e-12 1.42e-12 1.45e-12 1.57e-12 1.7e-12 1.83e-12 1.95e-12 2.06e-12 2.17e-12 2.26e-12 2.35e-12 2.52e-12 2.66e-12 2.8e-12 2.92e-12 3.02e-12 3.12e-12 3.21e-12 3.3e-12 3.38e-12 3.45e-12 
04 04 01  07 00 07 1.68e-12 1.63e-12 1.64e-12 1.74e-12 1.85e-12 1.98e-12 2.1e-12 2.21e-12 2.32e-12 2.42e-12 2.52e-12 2.69e-12 2.85e-12 2.99e-12 3.12e-12 3.23e-12 3.34e-12 3.43e-12 3.52e-12 3.6e-12 3.68e-12 
04 04 01  08 00 08 1.1e-12 1.08e-12 1.12e-12 1.24e-12 1.39e-12 1.53e-12 1.67e-12 1.8e-12 1.91e-12 2.02e-12 2.12e-12 2.3e-12 2.46e-12 2.6e-12 2.73e-12 2.85e-12 2.96e-12 3.06e-12 3.15e-12 3.24e-12 3.32e-12 
04 04 01  09 00 09 1.02e-12 1.01e-12 1.05e-12 1.16e-12 1.27e-12 1.39e-12 1.5e-12 1.59e-12 1.69e-12 1.77e-12 1.85e-12 2e-12 2.14e-12 2.26e-12 2.38e-12 2.49e-12 2.6e-12 2.7e-12 2.8e-12 2.89e-12 2.99e-12 
04 04 01  10 00 10 5.2e-13 5.2e-13 5.5e-13 6.1e-13 6.9e-13 7.7e-13 8.5e-13 9.3e-13 1.01e-12 1.09e-12 1.17e-12 1.31e-12 1.45e-12 1.59e-12 1.71e-12 1.84e-12 1.96e-12 2.07e-12 2.18e-12 2.3e-12 2.41e-12 
04 04 01  11 00 11 1.2e-13 1.8e-13 2.3e-13 3.5e-13 4.7e-13 6e-13 7.2e-13 8.4e-13 9.7e-13 1.09e-12 1.2e-12 1.43e-12 1.65e-12 1.86e-12 2.07e-12 2.27e-12 2.47e-12 2.67e-12 2.86e-12 3.05e-12 3.24e-12 
04 04 01  12 00 12 0 1e-14 3e-14 1e-13 1.8e-13 2.8e-13 3.9e-13 5.1e-13 6.3e-13 7.5e-13 8.8e-13 1.13e-12 1.38e-12 1.64e-12 1.9e-12 2.18e-12 2.46e-12 2.75e-12 3.04e-12 3.34e-12 3.65e-12 
04 04 01  02 02 01 1.48e-12 1.42e-12 1.42e-12 1.51e-12 1.64e-12 1.8e-12 1.96e-12 2.12e-12 2.28e-12 2.43e-12 2.58e-12 2.86e-12 3.12e-12 3.37e-12 3.61e-12 3.83e-12 4.05e-12 4.26e-12 4.47e-12 4.67e-12 4.87e-12 
04 04 01  02 02 00 6.5e-13 6.3e-13 6.3e-13 6.4e-13 6.5e-13 6.7e-13 6.9e-13 7.2e-13 7.5e-13 7.7e-13 8.1e-13 8.7e-13 9.4e-13 1.02e-12 1.09e-12 1.16e-12 1.24e-12 1.32e-12 1.4e-12 1.48e-12 1.56e-12 
04 04 01  03 02 02 1.58e-12 1.52e-12 1.51e-12 1.55e-12 1.61e-12 1.67e-12 1.74e-12 1.81e-12 1.89e-12 1.97e-12 2.05e-12 2.23e-12 2.42e-12 2.61e-12 2.81e-12 3.01e-12 3.2e-12 3.4e-12 3.59e-12 3.78e-12 3.97e-12 
04 04 01  03 02 01 1.29e-12 1.24e-12 1.24e-12 1.32e-12 1.43e-12 1.56e-12 1.69e-12 1.83e-12 1.96e-12 2.09e-12 2.22e-12 2.47e-12 2.7e-12 2.93e-12 3.14e-12 3.34e-12 3.53e-12 3.71e-12 3.88e-12 4.05e-12 4.21e-12 
04 04 01  04 02 03 1.53e-12 1.5e-12 1.53e-12 1.63e-12 1.74e-12 1.85e-12 1.95e-12 2.06e-12 2.16e-12 2.26e-12 2.36e-12 2.55e-12 2.74e-12 2.92e-12 3.09e-12 3.27e-12 3.44e-12 3.61e-12 3.78e-12 3.94e-12 4.11e-12 
04 04 01  04 02 02 1.6e-12 1.56e-12 1.58e-12 1.68e-12 1.8e-12 1.92e-12 2.04e-12 2.17e-12 2.29e-12 2.4e-12 2.52e-12 2.75e-12 2.98e-12 3.2e-12 3.42e-12 3.64e-12 3.86e-12 4.08e-12 4.3e-12 4.53e-12 4.75e-12 
04 04 01  05 02 04 2.92e-12 2.79e-12 2.75e-12 2.77e-12 2.83e-12 2.92e-12 3.02e-12 3.12e-12 3.23e-12 3.34e-12 3.46e-12 3.7e-12 3.95e-12 4.19e-12 4.43e-12 4.67e-12 4.9e-12 5.13e-12 5.34e-12 5.55e-12 5.75e-12 
04 04 01  05 02 03 1.19e-12 1.17e-12 1.2e-12 1.31e-12 1.43e-12 1.55e-12 1.67e-12 1.77e-12 1.87e-12 1.97e-12 2.06e-12 2.24e-12 2.42e-12 2.59e-12 2.77e-12 2.96e-12 3.15e-12 3.36e-12 3.58e-12 3.8e-12 4.04e-12 
04 04 01  06 02 05 1.81e-12 1.77e-12 1.8e-12 1.95e-12 2.12e-12 2.28e-12 2.44e-12 2.58e-12 2.71e-12 2.84e-12 2.95e-12 3.17e-12 3.36e-12 3.53e-12 3.69e-12 3.84e-12 3.97e-12 4.1e-12 4.21e-12 4.32e-12 4.43e-12 
04 04 01  06 02 04 2.51e-12 2.4e-12 2.36e-12 2.38e-12 2.44e-12 2.52e-12 2.6e-12 2.69e-12 2.79e-12 2.88e-12 2.98e-12 3.19e-12 3.41e-12 3.65e-12 3.9e-12 4.16e-12 4.43e-12 4.7e-12 4.99e-12 5.27e-12 5.57e-12 
04 04 01  07 02 06 3.69e-12 3.63e-12 3.7e-12 3.94e-12 4.2e-12 4.44e-12 4.66e-12 4.87e-12 5.05e-12 5.23e-12 5.39e-12 5.69e-12 5.95e-12 6.2e-12 6.43e-12 6.65e-12 6.85e-12 7.05e-12 7.25e-12 7.44e-12 7.63e-12 
04 04 01  07 02 05 7.3e-13 7.2e-13 7.3e-13 7.8e-13 8.4e-13 9e-13 9.6e-13 1.02e-12 1.08e-12 1.13e-12 1.19e-12 1.3e-12 1.41e-12 1.52e-12 1.63e-12 1.73e-12 1.84e-12 1.95e-12 2.06e-12 2.17e-12 2.28e-12 
04 04 01  08 02 07 1.91e-12 1.96e-12 2.1e-12 2.45e-12 2.82e-12 3.17e-12 3.49e-12 3.78e-12 4.04e-12 4.28e-12 4.49e-12 4.87e-12 5.19e-12 5.47e-12 5.72e-12 5.95e-12 6.16e-12 6.36e-12 6.56e-12 6.74e-12 6.92e-12 
04 04 01  08 02 06 1.27e-12 1.28e-12 1.33e-12 1.44e-12 1.56e-12 1.68e-12 1.8e-12 1.91e-12 2.02e-12 2.13e-12 2.24e-12 2.46e-12 2.67e-12 2.88e-12 3.08e-12 3.27e-12 3.46e-12 3.64e-12 3.81e-12 3.98e-12 4.15e-12 
04 04 01  09 02 08 1.13e-12 1.33e-12 1.61e-12 2.23e-12 2.87e-12 3.47e-12 4.03e-12 4.56e-12 5.04e-12 5.49e-12 5.91e-12 6.69e-12 7.37e-12 7.99e-12 8.54e-12 9.03e-12 9.48e-12 9.88e-12 1.02e-11 1.06e-11 1.08e-11 
04 04 01  09 02 07 5.1e-13 5.7e-13 6.4e-13 7.7e-13 8.7e-13 9.6e-13 1.04e-12 1.11e-12 1.17e-12 1.23e-12 1.29e-12 1.4e-12 1.5e-12 1.6e-12 1.69e-12 1.78e-12 1.87e-12 1.96e-12 2.05e-12 2.13e-12 2.21e-12 
04 04 01  10 02 09 1e-13 2.3e-13 3.9e-13 7.8e-13 1.25e-12 1.75e-12 2.27e-12 2.79e-12 3.3e-12 3.78e-12 4.25e-12 5.13e-12 5.94e-12 6.69e-12 7.4e-12 8.08e-12 8.72e-12 9.35e-12 9.95e-12 1.05e-11 1.11e-11 
04 04 01  10 02 08 1.1e-13 2.3e-13 3.6e-13 5.9e-13 8e-13 9.8e-13 1.14e-12 1.29e-12 1.42e-12 1.55e-12 1.67e-12 1.92e-12 2.15e-12 2.39e-12 2.62e-12 2.85e-12 3.08e-12 3.31e-12 3.54e-12 3.76e-12 3.98e-12 
04 04 01  11 02 10 0 3e-14 1e-13 3.2e-13 6.6e-13 1.08e-12 1.53e-12 2.02e-12 2.51e-12 2.99e-12 3.47e-12 4.38e-12 5.22e-12 5.99e-12 6.68e-12 7.32e-12 7.89e-12 8.4e-12 8.87e-12 9.3e-12 9.68e-12 
04 04 01  11 02 09 0 2e-14 5e-14 1.5e-13 2.9e-13 4.5e-13 6e-13 7.6e-13 9.1e-13 1.05e-12 1.19e-12 1.43e-12 1.66e-12 1.86e-12 2.06e-12 2.25e-12 2.43e-12 2.62e-12 2.81e-12 3e-12 3.19e-12 
04 04 01  04 04 01 0 0 0 0 0 0 0 0 0 0 0 0 0 0 0 0 0 0 0 0 0 
04 04 01  04 04 00 7.06e-11 8.21e-11 8.91e-11 9.66e-11 1e-10 1.02e-10 1.03e-10 1.03e-10 1.03e-10 1.03e-10 1.03e-10 1.02e-10 1.02e-10 1.01e-10 1.01e-10 1e-10 1e-10 9.97e-11 9.93e-11 9.9e-11 9.86e-11 
04 04 01  05 04 02 6.48e-12 1.17e-11 1.58e-11 2.16e-11 2.54e-11 2.82e-11 3.02e-11 3.18e-11 3.31e-11 3.42e-11 3.52e-11 3.67e-11 3.79e-11 3.88e-11 3.96e-11 4.03e-11 4.09e-11 4.14e-11 4.18e-11 4.23e-11 4.26e-11 
04 04 01  05 04 01 2.98e-12 5.57e-12 7.65e-12 1.08e-11 1.33e-11 1.53e-11 1.71e-11 1.88e-11 2.02e-11 2.16e-11 2.29e-11 2.52e-11 2.72e-11 2.89e-11 3.04e-11 3.18e-11 3.31e-11 3.41e-11 3.51e-11 3.61e-11 3.68e-11 
04 04 01  06 04 03 2.6e-13 9e-13 1.66e-12 3.08e-12 4.28e-12 5.31e-12 6.23e-12 7.09e-12 7.91e-12 8.68e-12 9.42e-12 1.08e-11 1.22e-11 1.34e-11 1.46e-11 1.57e-11 1.69e-11 1.78e-11 1.88e-11 1.98e-11 2.06e-11 
04 04 01  06 04 02 4e-13 1.44e-12 2.75e-12 5.38e-12 7.63e-12 9.51e-12 1.11e-11 1.24e-11 1.37e-11 1.47e-11 1.57e-11 1.74e-11 1.9e-11 2.02e-11 2.13e-11 2.24e-11 2.33e-11 2.41e-11 2.48e-11 2.54e-11 2.61e-11 
04 04 01  07 04 04 3e-14 2.3e-13 6.8e-13 2.03e-12 3.53e-12 4.97e-12 6.31e-12 7.46e-12 8.58e-12 9.53e-12 1.05e-11 1.21e-11 1.36e-11 1.51e-11 1.62e-11 1.74e-11 1.84e-11 1.94e-11 2.01e-11 2.09e-11 2.16e-11 
04 04 01  07 04 03 1e-14 1e-13 2.9e-13 8.6e-13 1.52e-12 2.16e-12 2.76e-12 3.32e-12 3.83e-12 4.32e-12 4.76e-12 5.6e-12 6.37e-12 7.1e-12 7.79e-12 8.48e-12 9.17e-12 9.84e-12 1.05e-11 1.12e-11 1.19e-11 
04 04 00  00 00 00 1.2e-13 1.1e-13 1.2e-13 1.2e-13 1.3e-13 1.4e-13 1.5e-13 1.6e-13 1.7e-13 1.7e-13 1.8e-13 1.9e-13 2.1e-13 2.3e-13 2.5e-13 2.6e-13 2.9e-13 3.1e-13 3.3e-13 3.6e-13 3.9e-13 
04 04 00  01 00 01 1.3e-13 1.3e-13 1.2e-13 1.2e-13 1.2e-13 1.2e-13 1.2e-13 1.2e-13 1.3e-13 1.4e-13 1.4e-13 1.6e-13 1.7e-13 1.9e-13 2.1e-13 2.3e-13 2.6e-13 2.8e-13 3e-13 3.3e-13 3.5e-13 
04 04 00  02 00 02 2.6e-13 2.6e-13 2.7e-13 2.9e-13 3.1e-13 3.4e-13 3.7e-13 3.9e-13 4.2e-13 4.5e-13 4.7e-13 5.3e-13 5.9e-13 6.5e-13 7.1e-13 7.7e-13 8.3e-13 9e-13 9.6e-13 1.02e-12 1.08e-12 
04 04 00  03 00 03 5.7e-13 5.4e-13 5.3e-13 5.3e-13 5.5e-13 5.7e-13 6e-13 6.4e-13 6.9e-13 7.3e-13 7.7e-13 8.6e-13 9.5e-13 1.04e-12 1.12e-12 1.19e-12 1.26e-12 1.33e-12 1.4e-12 1.46e-12 1.53e-12 
04 04 00  04 00 04 6.9e-13 6.6e-13 6.6e-13 6.9e-13 7.4e-13 7.9e-13 8.5e-13 9.1e-13 9.8e-13 1.04e-12 1.11e-12 1.23e-12 1.35e-12 1.46e-12 1.57e-12 1.67e-12 1.76e-12 1.85e-12 1.94e-12 2.02e-12 2.1e-12 
04 04 00  05 00 05 1.28e-12 1.24e-12 1.25e-12 1.31e-12 1.39e-12 1.46e-12 1.54e-12 1.62e-12 1.69e-12 1.76e-12 1.83e-12 1.96e-12 2.08e-12 2.2e-12 2.32e-12 2.43e-12 2.53e-12 2.63e-12 2.73e-12 2.83e-12 2.92e-12 
04 04 00  06 00 06 1.43e-12 1.38e-12 1.39e-12 1.47e-12 1.58e-12 1.68e-12 1.79e-12 1.9e-12 2e-12 2.1e-12 2.19e-12 2.36e-12 2.52e-12 2.67e-12 2.81e-12 2.95e-12 3.07e-12 3.19e-12 3.31e-12 3.42e-12 3.53e-12 
04 04 00  07 00 07 1.29e-12 1.28e-12 1.32e-12 1.47e-12 1.63e-12 1.79e-12 1.94e-12 2.08e-12 2.21e-12 2.33e-12 2.43e-12 2.63e-12 2.8e-12 2.95e-12 3.09e-12 3.21e-12 3.33e-12 3.43e-12 3.53e-12 3.62e-12 3.7e-12 
04 04 00  08 00 08 1.52e-12 1.49e-12 1.51e-12 1.62e-12 1.74e-12 1.86e-12 1.98e-12 2.09e-12 2.19e-12 2.29e-12 2.38e-12 2.54e-12 2.69e-12 2.82e-12 2.94e-12 3.05e-12 3.15e-12 3.24e-12 3.32e-12 3.39e-12 3.46e-12 
04 04 00  09 00 09 8.7e-13 8.6e-13 8.8e-13 9.6e-13 1.06e-12 1.17e-12 1.28e-12 1.38e-12 1.48e-12 1.57e-12 1.66e-12 1.82e-12 1.97e-12 2.1e-12 2.22e-12 2.34e-12 2.45e-12 2.56e-12 2.67e-12 2.77e-12 2.87e-12 
04 04 00  10 00 10 5.1e-13 5.3e-13 5.7e-13 6.7e-13 7.8e-13 8.9e-13 9.9e-13 1.1e-12 1.19e-12 1.28e-12 1.37e-12 1.53e-12 1.68e-12 1.83e-12 1.98e-12 2.12e-12 2.27e-12 2.42e-12 2.57e-12 2.73e-12 2.89e-12 
04 04 00  11 00 11 1.3e-13 1.9e-13 2.4e-13 3.2e-13 4.1e-13 5.1e-13 6.1e-13 7.2e-13 8.3e-13 9.4e-13 1.05e-12 1.27e-12 1.5e-12 1.73e-12 1.97e-12 2.2e-12 2.44e-12 2.67e-12 2.91e-12 3.15e-12 3.38e-12 
04 04 00  12 00 12 0 2e-14 4e-14 1.2e-13 2.3e-13 3.6e-13 5e-13 6.4e-13 7.8e-13 9.2e-13 1.06e-12 1.34e-12 1.62e-12 1.89e-12 2.16e-12 2.43e-12 2.69e-12 2.95e-12 3.21e-12 3.47e-12 3.72e-12 
04 04 00  02 02 01 6.3e-13 6.1e-13 6.1e-13 6.2e-13 6.4e-13 6.6e-13 6.9e-13 7.1e-13 7.4e-13 7.6e-13 7.9e-13 8.5e-13 9.1e-13 9.7e-13 1.03e-12 1.1e-12 1.16e-12 1.23e-12 1.3e-12 1.37e-12 1.44e-12 
04 04 00  02 02 00 1.34e-12 1.29e-12 1.31e-12 1.42e-12 1.58e-12 1.76e-12 1.95e-12 2.13e-12 2.3e-12 2.48e-12 2.64e-12 2.96e-12 3.25e-12 3.52e-12 3.78e-12 4.02e-12 4.24e-12 4.45e-12 4.65e-12 4.83e-12 5.01e-12 
04 04 00  03 02 02 1.36e-12 1.31e-12 1.32e-12 1.38e-12 1.47e-12 1.58e-12 1.69e-12 1.8e-12 1.92e-12 2.03e-12 2.14e-12 2.35e-12 2.56e-12 2.76e-12 2.95e-12 3.13e-12 3.31e-12 3.49e-12 3.66e-12 3.83e-12 4.01e-12 
04 04 00  03 02 01 1.42e-12 1.36e-12 1.37e-12 1.43e-12 1.51e-12 1.59e-12 1.67e-12 1.76e-12 1.84e-12 1.93e-12 2.02e-12 2.2e-12 2.37e-12 2.54e-12 2.7e-12 2.85e-12 3.01e-12 3.15e-12 3.29e-12 3.43e-12 3.56e-12 
04 04 00  04 02 03 2.04e-12 1.96e-12 1.95e-12 2.01e-12 2.1e-12 2.2e-12 2.31e-12 2.42e-12 2.53e-12 2.64e-12 2.76e-12 2.99e-12 3.23e-12 3.46e-12 3.7e-12 3.93e-12 4.16e-12 4.39e-12 4.61e-12 4.83e-12 5.04e-12 
04 04 00  04 02 02 1.51e-12 1.46e-12 1.48e-12 1.56e-12 1.68e-12 1.79e-12 1.91e-12 2.02e-12 2.13e-12 2.24e-12 2.35e-12 2.56e-12 2.75e-12 2.94e-12 3.12e-12 3.29e-12 3.46e-12 3.63e-12 3.79e-12 3.95e-12 4.1e-12 
04 04 00  05 02 04 1.54e-12 1.51e-12 1.55e-12 1.69e-12 1.84e-12 1.98e-12 2.11e-12 2.23e-12 2.35e-12 2.46e-12 2.56e-12 2.74e-12 2.91e-12 3.06e-12 3.2e-12 3.34e-12 3.46e-12 3.58e-12 3.7e-12 3.81e-12 3.92e-12 
04 04 00  05 02 03 2.16e-12 2.08e-12 2.06e-12 2.11e-12 2.2e-12 2.3e-12 2.4e-12 2.51e-12 2.62e-12 2.73e-12 2.85e-12 3.08e-12 3.31e-12 3.55e-12 3.79e-12 4.03e-12 4.27e-12 4.51e-12 4.76e-12 5e-12 5.24e-12 
04 04 00  06 02 05 3.74e-12 3.59e-12 3.56e-12 3.61e-12 3.7e-12 3.8e-12 3.91e-12 4.01e-12 4.11e-12 4.21e-12 4.31e-12 4.5e-12 4.7e-12 4.91e-12 5.12e-12 5.35e-12 5.59e-12 5.83e-12 6.09e-12 6.36e-12 6.64e-12 
04 04 00  06 02 04 7.6e-13 7.6e-13 7.9e-13 8.8e-13 9.9e-13 1.09e-12 1.19e-12 1.28e-12 1.37e-12 1.45e-12 1.53e-12 1.69e-12 1.83e-12 1.98e-12 2.13e-12 2.28e-12 2.44e-12 2.61e-12 2.79e-12 2.98e-12 3.19e-12 
04 04 00  07 02 06 2.21e-12 2.17e-12 2.23e-12 2.42e-12 2.63e-12 2.84e-12 3.03e-12 3.21e-12 3.36e-12 3.51e-12 3.64e-12 3.86e-12 4.05e-12 4.22e-12 4.36e-12 4.49e-12 4.61e-12 4.71e-12 4.81e-12 4.89e-12 4.97e-12 
04 04 00  07 02 05 1.99e-12 1.94e-12 1.95e-12 2.02e-12 2.1e-12 2.19e-12 2.29e-12 2.38e-12 2.47e-12 2.56e-12 2.65e-12 2.84e-12 3.02e-12 3.21e-12 3.41e-12 3.62e-12 3.84e-12 4.07e-12 4.31e-12 4.57e-12 4.84e-12 
04 04 00  08 02 07 2.65e-12 2.75e-12 2.95e-12 3.43e-12 3.9e-12 4.32e-12 4.7e-12 5.03e-12 5.33e-12 5.6e-12 5.85e-12 6.29e-12 6.67e-12 7.02e-12 7.34e-12 7.65e-12 7.94e-12 8.22e-12 8.5e-12 8.78e-12 9.06e-12 
04 04 00  08 02 06 8.3e-13 8.3e-13 8.5e-13 9.1e-13 9.6e-13 1e-12 1.04e-12 1.08e-12 1.11e-12 1.15e-12 1.18e-12 1.25e-12 1.32e-12 1.39e-12 1.47e-12 1.56e-12 1.65e-12 1.75e-12 1.85e-12 1.96e-12 2.08e-12 
04 04 00  09 02 08 8.7e-13 1.03e-12 1.24e-12 1.74e-12 2.26e-12 2.77e-12 3.25e-12 3.71e-12 4.14e-12 4.53e-12 4.91e-12 5.59e-12 6.19e-12 6.73e-12 7.22e-12 7.66e-12 8.07e-12 8.44e-12 8.78e-12 9.09e-12 9.37e-12 
04 04 00  09 02 07 6.8e-13 7.6e-13 8.6e-13 1.05e-12 1.22e-12 1.37e-12 1.51e-12 1.63e-12 1.75e-12 1.86e-12 1.97e-12 2.17e-12 2.35e-12 2.52e-12 2.68e-12 2.84e-12 2.98e-12 3.11e-12 3.24e-12 3.36e-12 3.48e-12 
04 04 00  10 02 09 1.4e-13 3.1e-13 5.2e-13 1.02e-12 1.56e-12 2.12e-12 2.66e-12 3.18e-12 3.68e-12 4.16e-12 4.62e-12 5.48e-12 6.28e-12 7.03e-12 7.73e-12 8.39e-12 9.01e-12 9.59e-12 1.01e-11 1.07e-11 1.12e-11 
04 04 00  10 02 08 8e-14 1.7e-13 2.6e-13 4.3e-13 6e-13 7.5e-13 8.9e-13 1.03e-12 1.15e-12 1.27e-12 1.38e-12 1.58e-12 1.77e-12 1.95e-12 2.12e-12 2.28e-12 2.44e-12 2.59e-12 2.75e-12 2.9e-12 3.05e-12 
04 04 00  11 02 10 0 3e-14 8e-14 2.8e-13 6e-13 1.01e-12 1.48e-12 1.99e-12 2.52e-12 3.06e-12 3.6e-12 4.64e-12 5.63e-12 6.54e-12 7.38e-12 8.16e-12 8.88e-12 9.55e-12 1.02e-11 1.08e-11 1.13e-11 
04 04 00  11 02 09 0 2e-14 6e-14 1.8e-13 3.3e-13 4.8e-13 6.3e-13 7.7e-13 9e-13 1.02e-12 1.14e-12 1.36e-12 1.58e-12 1.79e-12 2.02e-12 2.26e-12 2.51e-12 2.79e-12 3.08e-12 3.4e-12 3.73e-12 
04 04 00  04 04 01 7.06e-11 8.21e-11 8.91e-11 9.66e-11 1e-10 1.02e-10 1.03e-10 1.03e-10 1.03e-10 1.03e-10 1.03e-10 1.02e-10 1.02e-10 1.01e-10 1.01e-10 1e-10 1e-10 9.97e-11 9.93e-11 9.9e-11 9.86e-11 
04 04 00  04 04 00 0 0 0 0 0 0 0 0 0 0 0 0 0 0 0 0 0 0 0 0 0 
04 04 00  05 04 02 2.94e-12 5.49e-12 7.6e-12 1.08e-11 1.33e-11 1.53e-11 1.71e-11 1.88e-11 2.02e-11 2.16e-11 2.3e-11 2.54e-11 2.74e-11 2.92e-11 3.08e-11 3.23e-11 3.35e-11 3.47e-11 3.58e-11 3.68e-11 3.76e-11 
04 04 00  05 04 01 6.48e-12 1.17e-11 1.58e-11 2.16e-11 2.54e-11 2.82e-11 3.02e-11 3.19e-11 3.33e-11 3.44e-11 3.54e-11 3.7e-11 3.83e-11 3.93e-11 4.01e-11 4.09e-11 4.14e-11 4.19e-11 4.24e-11 4.27e-11 4.3e-11 
04 04 00  06 04 03 4e-13 1.43e-12 2.73e-12 5.33e-12 7.63e-12 9.44e-12 1.1e-11 1.24e-11 1.37e-11 1.47e-11 1.57e-11 1.75e-11 1.9e-11 2.03e-11 2.15e-11 2.25e-11 2.34e-11 2.41e-11 2.49e-11 2.54e-11 2.61e-11 
04 04 00  06 04 02 2.6e-13 9.1e-13 1.68e-12 3.12e-12 4.33e-12 5.39e-12 6.35e-12 7.25e-12 8.1e-12 8.92e-12 9.72e-12 1.12e-11 1.26e-11 1.4e-11 1.53e-11 1.64e-11 1.76e-11 1.86e-11 1.96e-11 2.04e-11 2.12e-11 
04 04 00  07 04 04 1e-14 1e-13 2.8e-13 8.2e-13 1.43e-12 2.01e-12 2.55e-12 3.05e-12 3.49e-12 3.91e-12 4.29e-12 4.99e-12 5.63e-12 6.22e-12 6.79e-12 7.35e-12 7.91e-12 8.46e-12 9.02e-12 9.57e-12 1.01e-11 
04 04 00  07 04 03 3e-14 2.3e-13 6.9e-13 2.07e-12 3.6e-12 5.12e-12 6.43e-12 7.67e-12 8.81e-12 9.86e-12 1.08e-11 1.24e-11 1.39e-11 1.52e-11 1.64e-11 1.74e-11 1.84e-11 1.92e-11 2e-11 2.08e-11 2.13e-11 
05 04 02  00 00 00 0 0 0 0 0 0 0 0 0 0 0 0 0 0 0 0 0 0 0 0 0 
05 04 02  01 00 01 3e-13 2.8e-13 2.7e-13 2.6e-13 2.6e-13 2.7e-13 2.8e-13 3e-13 3.1e-13 3.3e-13 3.4e-13 3.8e-13 4.2e-13 4.7e-13 5.1e-13 5.6e-13 6.1e-13 6.7e-13 7.2e-13 7.8e-13 8.4e-13 
05 04 02  02 00 02 8.5e-13 7.9e-13 7.5e-13 7.2e-13 7.1e-13 7.2e-13 7.4e-13 7.7e-13 8.1e-13 8.4e-13 8.8e-13 9.6e-13 1.04e-12 1.12e-12 1.21e-12 1.28e-12 1.36e-12 1.44e-12 1.51e-12 1.58e-12 1.65e-12 
05 04 02  03 00 03 9.2e-13 8.7e-13 8.5e-13 8.4e-13 8.5e-13 8.6e-13 8.8e-13 9e-13 9.3e-13 9.5e-13 9.8e-13 1.04e-12 1.11e-12 1.17e-12 1.24e-12 1.31e-12 1.37e-12 1.43e-12 1.49e-12 1.55e-12 1.61e-12 
05 04 02  04 00 04 4.2e-13 4.4e-13 4.8e-13 5.5e-13 6.3e-13 7e-13 7.7e-13 8.5e-13 9.2e-13 9.9e-13 1.05e-12 1.18e-12 1.3e-12 1.42e-12 1.53e-12 1.63e-12 1.74e-12 1.84e-12 1.94e-12 2.04e-12 2.14e-12 
05 04 02  05 00 05 6.6e-13 6.6e-13 6.7e-13 7.1e-13 7.7e-13 8.4e-13 9.1e-13 9.8e-13 1.04e-12 1.11e-12 1.17e-12 1.29e-12 1.4e-12 1.51e-12 1.61e-12 1.71e-12 1.81e-12 1.91e-12 2e-12 2.1e-12 2.19e-12 
05 04 02  06 00 06 8.6e-13 8.3e-13 8.4e-13 8.8e-13 9.3e-13 1e-12 1.06e-12 1.13e-12 1.19e-12 1.26e-12 1.32e-12 1.45e-12 1.57e-12 1.69e-12 1.8e-12 1.91e-12 2.02e-12 2.12e-12 2.22e-12 2.32e-12 2.42e-12 
05 04 02  07 00 07 1.08e-12 1.09e-12 1.14e-12 1.24e-12 1.34e-12 1.44e-12 1.52e-12 1.61e-12 1.68e-12 1.76e-12 1.83e-12 1.97e-12 2.1e-12 2.23e-12 2.35e-12 2.46e-12 2.57e-12 2.68e-12 2.77e-12 2.87e-12 2.96e-12 
05 04 02  08 00 08 1.36e-12 1.41e-12 1.47e-12 1.61e-12 1.75e-12 1.87e-12 1.99e-12 2.1e-12 2.2e-12 2.29e-12 2.38e-12 2.55e-12 2.7e-12 2.84e-12 2.97e-12 3.08e-12 3.18e-12 3.28e-12 3.36e-12 3.44e-12 3.51e-12 
05 04 02  09 00 09 1.24e-12 1.31e-12 1.41e-12 1.62e-12 1.82e-12 2.01e-12 2.18e-12 2.33e-12 2.47e-12 2.6e-12 2.71e-12 2.91e-12 3.09e-12 3.25e-12 3.39e-12 3.53e-12 3.65e-12 3.77e-12 3.89e-12 4e-12 4.12e-12 
05 04 02  10 00 10 1.09e-12 1.2e-12 1.32e-12 1.58e-12 1.82e-12 2.05e-12 2.24e-12 2.42e-12 2.59e-12 2.73e-12 2.87e-12 3.12e-12 3.34e-12 3.54e-12 3.75e-12 3.95e-12 4.15e-12 4.36e-12 4.58e-12 4.8e-12 5.03e-12 
05 04 02  11 00 11 5.4e-13 5.8e-13 6.3e-13 7.6e-13 9.1e-13 1.08e-12 1.25e-12 1.41e-12 1.58e-12 1.74e-12 1.9e-12 2.2e-12 2.48e-12 2.76e-12 3.03e-12 3.3e-12 3.56e-12 3.83e-12 4.09e-12 4.36e-12 4.62e-12 
05 04 02  12 00 12 2e-14 6e-14 1e-13 2.1e-13 3.4e-13 4.9e-13 6.5e-13 8.1e-13 9.7e-13 1.14e-12 1.3e-12 1.62e-12 1.94e-12 2.25e-12 2.56e-12 2.88e-12 3.19e-12 3.51e-12 3.83e-12 4.16e-12 4.49e-12 
05 04 02  02 02 01 1.84e-12 1.72e-12 1.63e-12 1.53e-12 1.47e-12 1.43e-12 1.41e-12 1.41e-12 1.42e-12 1.43e-12 1.45e-12 1.5e-12 1.57e-12 1.64e-12 1.72e-12 1.8e-12 1.88e-12 1.97e-12 2.05e-12 2.14e-12 2.22e-12 
05 04 02  02 02 00 1.53e-12 1.42e-12 1.35e-12 1.27e-12 1.23e-12 1.21e-12 1.21e-12 1.22e-12 1.25e-12 1.28e-12 1.32e-12 1.4e-12 1.49e-12 1.58e-12 1.68e-12 1.78e-12 1.87e-12 1.97e-12 2.06e-12 2.16e-12 2.26e-12 
05 04 02  03 02 02 2.49e-12 2.39e-12 2.35e-12 2.36e-12 2.44e-12 2.55e-12 2.67e-12 2.8e-12 2.94e-12 3.07e-12 3.2e-12 3.45e-12 3.69e-12 3.92e-12 4.15e-12 4.36e-12 4.57e-12 4.78e-12 4.99e-12 5.19e-12 5.39e-12 
05 04 02  03 02 01 6.3e-13 6e-13 5.9e-13 5.8e-13 6e-13 6.2e-13 6.6e-13 6.9e-13 7.3e-13 7.7e-13 8.1e-13 9e-13 9.9e-13 1.09e-12 1.19e-12 1.29e-12 1.4e-12 1.5e-12 1.61e-12 1.72e-12 1.83e-12 
05 04 02  04 02 03 1.58e-12 1.53e-12 1.52e-12 1.53e-12 1.58e-12 1.63e-12 1.69e-12 1.75e-12 1.81e-12 1.88e-12 1.94e-12 2.07e-12 2.21e-12 2.35e-12 2.49e-12 2.64e-12 2.79e-12 2.95e-12 3.11e-12 3.28e-12 3.45e-12 
05 04 02  04 02 02 6.6e-13 7e-13 7.6e-13 9e-13 1.06e-12 1.21e-12 1.36e-12 1.5e-12 1.63e-12 1.76e-12 1.88e-12 2.1e-12 2.31e-12 2.51e-12 2.71e-12 2.9e-12 3.08e-12 3.26e-12 3.44e-12 3.62e-12 3.79e-12 
05 04 02  05 02 04 1.32e-12 1.36e-12 1.43e-12 1.6e-12 1.77e-12 1.94e-12 2.09e-12 2.24e-12 2.38e-12 2.52e-12 2.64e-12 2.87e-12 3.09e-12 3.3e-12 3.51e-12 3.72e-12 3.93e-12 4.15e-12 4.37e-12 4.61e-12 4.85e-12 
05 04 02  05 02 03 1.76e-12 1.75e-12 1.77e-12 1.83e-12 1.91e-12 1.98e-12 2.07e-12 2.15e-12 2.25e-12 2.34e-12 2.44e-12 2.64e-12 2.85e-12 3.06e-12 3.28e-12 3.5e-12 3.72e-12 3.95e-12 4.18e-12 4.42e-12 4.66e-12 
05 04 02  06 02 05 2.01e-12 2.07e-12 2.18e-12 2.42e-12 2.66e-12 2.89e-12 3.1e-12 3.3e-12 3.49e-12 3.68e-12 3.85e-12 4.19e-12 4.51e-12 4.83e-12 5.13e-12 5.42e-12 5.71e-12 5.99e-12 6.27e-12 6.54e-12 6.81e-12 
05 04 02  06 02 04 2.35e-12 2.32e-12 2.35e-12 2.46e-12 2.57e-12 2.69e-12 2.8e-12 2.9e-12 3.01e-12 3.1e-12 3.2e-12 3.39e-12 3.58e-12 3.76e-12 3.94e-12 4.13e-12 4.31e-12 4.5e-12 4.69e-12 4.89e-12 5.09e-12 
05 04 02  07 02 06 9.2e-13 1.01e-12 1.13e-12 1.41e-12 1.72e-12 2.01e-12 2.29e-12 2.55e-12 2.79e-12 3.01e-12 3.22e-12 3.58e-12 3.9e-12 4.18e-12 4.44e-12 4.66e-12 4.87e-12 5.06e-12 5.24e-12 5.4e-12 5.55e-12 
05 04 02  07 02 05 3.26e-12 3.29e-12 3.38e-12 3.59e-12 3.78e-12 3.96e-12 4.12e-12 4.29e-12 4.44e-12 4.6e-12 4.75e-12 5.06e-12 5.37e-12 5.68e-12 6.01e-12 6.35e-12 6.69e-12 7.06e-12 7.43e-12 7.81e-12 8.21e-12 
05 04 02  08 02 07 2.55e-12 2.59e-12 2.68e-12 2.88e-12 3.08e-12 3.27e-12 3.46e-12 3.65e-12 3.84e-12 4.03e-12 4.21e-12 4.56e-12 4.89e-12 5.2e-12 5.51e-12 5.79e-12 6.07e-12 6.34e-12 6.59e-12 6.84e-12 7.08e-12 
05 04 02  08 02 06 9.1e-13 1.02e-12 1.14e-12 1.39e-12 1.64e-12 1.87e-12 2.08e-12 2.29e-12 2.48e-12 2.66e-12 2.83e-12 3.15e-12 3.46e-12 3.75e-12 4.03e-12 4.29e-12 4.54e-12 4.77e-12 4.99e-12 5.2e-12 5.4e-12 
05 04 02  09 02 08 9.1e-13 1.02e-12 1.14e-12 1.35e-12 1.53e-12 1.71e-12 1.88e-12 2.06e-12 2.23e-12 2.4e-12 2.57e-12 2.9e-12 3.21e-12 3.52e-12 3.83e-12 4.12e-12 4.42e-12 4.71e-12 5.01e-12 5.3e-12 5.6e-12 
05 04 02  09 02 07 1.69e-12 1.77e-12 1.87e-12 2.1e-12 2.32e-12 2.53e-12 2.73e-12 2.91e-12 3.09e-12 3.26e-12 3.42e-12 3.73e-12 4.03e-12 4.31e-12 4.59e-12 4.85e-12 5.1e-12 5.34e-12 5.57e-12 5.79e-12 6.01e-12 
05 04 02  10 02 09 8.2e-13 1.01e-12 1.2e-12 1.58e-12 1.95e-12 2.29e-12 2.6e-12 2.89e-12 3.16e-12 3.42e-12 3.66e-12 4.11e-12 4.53e-12 4.91e-12 5.26e-12 5.59e-12 5.89e-12 6.18e-12 6.45e-12 6.7e-12 6.93e-12 
05 04 02  10 02 08 3.8e-13 4.8e-13 5.8e-13 7.7e-13 9.5e-13 1.13e-12 1.3e-12 1.46e-12 1.62e-12 1.77e-12 1.92e-12 2.21e-12 2.48e-12 2.74e-12 2.99e-12 3.22e-12 3.45e-12 3.67e-12 3.88e-12 4.08e-12 4.27e-12 
05 04 02  11 02 10 4e-14 1.4e-13 2.9e-13 6.7e-13 1.1e-12 1.54e-12 1.98e-12 2.41e-12 2.82e-12 3.21e-12 3.58e-12 4.26e-12 4.87e-12 5.43e-12 5.93e-12 6.39e-12 6.81e-12 7.19e-12 7.55e-12 7.88e-12 8.18e-12 
05 04 02  11 02 09 1e-14 6e-14 1.2e-13 2.9e-13 4.9e-13 7e-13 9.1e-13 1.12e-12 1.31e-12 1.5e-12 1.68e-12 2.01e-12 2.32e-12 2.62e-12 2.92e-12 3.21e-12 3.49e-12 3.79e-12 4.08e-12 4.37e-12 4.68e-12 
05 04 02  04 04 01 3.04e-11 3.06e-11 3.1e-11 3.16e-11 3.22e-11 3.27e-11 3.31e-11 3.34e-11 3.37e-11 3.4e-11 3.43e-11 3.47e-11 3.51e-11 3.54e-11 3.57e-11 3.6e-11 3.62e-11 3.64e-11 3.66e-11 3.68e-11 3.69e-11 
05 04 02  04 04 00 1.38e-11 1.44e-11 1.49e-11 1.59e-11 1.68e-11 1.78e-11 1.87e-11 1.97e-11 2.06e-11 2.15e-11 2.24e-11 2.4e-11 2.54e-11 2.66e-11 2.78e-11 2.88e-11 2.97e-11 3.05e-11 3.13e-11 3.2e-11 3.26e-11 
05 04 02  05 04 02 0 0 0 0 0 0 0 0 0 0 0 0 0 0 0 0 0 0 0 0 0 
05 04 02  05 04 01 7.45e-11 7.81e-11 7.97e-11 8.1e-11 8.11e-11 8.09e-11 8.04e-11 8e-11 7.95e-11 7.9e-11 7.86e-11 7.78e-11 7.73e-11 7.68e-11 7.65e-11 7.62e-11 7.6e-11 7.58e-11 7.56e-11 7.54e-11 7.52e-11 
05 04 02  06 04 03 4.84e-12 9.96e-12 1.45e-11 2.14e-11 2.62e-11 2.97e-11 3.23e-11 3.43e-11 3.6e-11 3.74e-11 3.85e-11 4.03e-11 4.18e-11 4.29e-11 4.4e-11 4.48e-11 4.56e-11 4.61e-11 4.67e-11 4.72e-11 4.75e-11 
05 04 02  06 04 02 1.22e-12 2.55e-12 3.82e-12 6.05e-12 8.05e-12 9.87e-12 1.15e-11 1.31e-11 1.46e-11 1.6e-11 1.72e-11 1.96e-11 2.16e-11 2.33e-11 2.48e-11 2.62e-11 2.74e-11 2.85e-11 2.94e-11 3.04e-11 3.11e-11 
05 04 02  07 04 04 9e-14 3.9e-13 8.4e-13 1.79e-12 2.68e-12 3.49e-12 4.25e-12 4.97e-12 5.67e-12 6.35e-12 7e-12 8.25e-12 9.4e-12 1.05e-11 1.14e-11 1.24e-11 1.32e-11 1.4e-11 1.48e-11 1.54e-11 1.59e-11 
05 04 02  07 04 03 1.1e-13 5e-13 1.11e-12 2.55e-12 3.98e-12 5.28e-12 6.46e-12 7.55e-12 8.5e-12 9.38e-12 1.02e-11 1.17e-11 1.29e-11 1.41e-11 1.5e-11 1.61e-11 1.7e-11 1.77e-11 1.85e-11 1.92e-11 1.99e-11 
05 04 01  00 00 00 2.4e-13 2.3e-13 2.1e-13 2e-13 2e-13 2e-13 2.1e-13 2.1e-13 2.2e-13 2.4e-13 2.5e-13 2.7e-13 3e-13 3.2e-13 3.5e-13 3.7e-13 3.9e-13 4.2e-13 4.4e-13 4.6e-13 4.7e-13 
05 04 01  01 00 01 4.2e-13 3.9e-13 3.7e-13 3.4e-13 3.2e-13 3.2e-13 3.2e-13 3.3e-13 3.4e-13 3.5e-13 3.6e-13 3.9e-13 4.2e-13 4.5e-13 4.8e-13 5.2e-13 5.5e-13 5.9e-13 6.3e-13 6.7e-13 7.1e-13 
05 04 01  02 00 02 3.8e-13 3.7e-13 3.7e-13 3.6e-13 3.6e-13 3.7e-13 3.7e-13 3.9e-13 4e-13 4.2e-13 4.4e-13 4.8e-13 5.2e-13 5.7e-13 6.2e-13 6.8e-13 7.3e-13 7.9e-13 8.5e-13 9.2e-13 9.8e-13 
05 04 01  03 00 03 7e-13 6.9e-13 6.8e-13 6.9e-13 7.2e-13 7.5e-13 7.9e-13 8.4e-13 8.9e-13 9.4e-13 9.9e-13 1.1e-12 1.22e-12 1.34e-12 1.46e-12 1.57e-12 1.69e-12 1.81e-12 1.93e-12 2.05e-12 2.17e-12 
05 04 01  04 00 04 1.15e-12 1.11e-12 1.09e-12 1.1e-12 1.13e-12 1.18e-12 1.23e-12 1.28e-12 1.33e-12 1.39e-12 1.45e-12 1.57e-12 1.69e-12 1.8e-12 1.92e-12 2.03e-12 2.14e-12 2.24e-12 2.34e-12 2.44e-12 2.53e-12 
05 04 01  05 00 05 7.1e-13 7.2e-13 7.3e-13 7.8e-13 8.5e-13 9.2e-13 9.8e-13 1.06e-12 1.13e-12 1.2e-12 1.27e-12 1.41e-12 1.55e-12 1.69e-12 1.82e-12 1.95e-12 2.08e-12 2.21e-12 2.34e-12 2.47e-12 2.6e-12 
05 04 01  06 00 06 6.4e-13 6.5e-13 6.7e-13 7.2e-13 7.8e-13 8.5e-13 9.1e-13 9.8e-13 1.04e-12 1.1e-12 1.17e-12 1.29e-12 1.4e-12 1.52e-12 1.63e-12 1.74e-12 1.85e-12 1.96e-12 2.07e-12 2.18e-12 2.28e-12 
05 04 01  07 00 07 9.8e-13 9.8e-13 1e-12 1.06e-12 1.13e-12 1.2e-12 1.28e-12 1.35e-12 1.42e-12 1.49e-12 1.56e-12 1.68e-12 1.8e-12 1.92e-12 2.03e-12 2.14e-12 2.24e-12 2.35e-12 2.45e-12 2.54e-12 2.64e-12 
05 04 01  08 00 08 1.33e-12 1.38e-12 1.46e-12 1.64e-12 1.8e-12 1.94e-12 2.07e-12 2.18e-12 2.28e-12 2.38e-12 2.46e-12 2.62e-12 2.76e-12 2.89e-12 3.01e-12 3.12e-12 3.22e-12 3.32e-12 3.41e-12 3.5e-12 3.58e-12 
05 04 01  09 00 09 1.54e-12 1.66e-12 1.79e-12 2.04e-12 2.26e-12 2.45e-12 2.62e-12 2.77e-12 2.9e-12 3.02e-12 3.14e-12 3.34e-12 3.52e-12 3.68e-12 3.82e-12 3.96e-12 4.08e-12 4.2e-12 4.32e-12 4.43e-12 4.54e-12 
05 04 01  10 00 10 1.03e-12 1.08e-12 1.16e-12 1.34e-12 1.53e-12 1.74e-12 1.94e-12 2.12e-12 2.3e-12 2.46e-12 2.62e-12 2.9e-12 3.14e-12 3.37e-12 3.57e-12 3.77e-12 3.96e-12 4.15e-12 4.33e-12 4.51e-12 4.69e-12 
05 04 01  11 00 11 5.7e-13 6.2e-13 6.8e-13 8.2e-13 9.9e-13 1.17e-12 1.34e-12 1.52e-12 1.69e-12 1.85e-12 2.01e-12 2.31e-12 2.59e-12 2.86e-12 3.12e-12 3.38e-12 3.64e-12 3.89e-12 4.15e-12 4.41e-12 4.67e-12 
05 04 01  12 00 12 2e-14 6e-14 1e-13 2e-13 3.1e-13 4.2e-13 5.4e-13 6.6e-13 7.8e-13 9.1e-13 1.04e-12 1.31e-12 1.58e-12 1.87e-12 2.17e-12 2.48e-12 2.81e-12 3.15e-12 3.51e-12 3.88e-12 4.27e-12 
05 04 01  02 02 01 1.19e-12 1.12e-12 1.08e-12 1.04e-12 1.02e-12 1.02e-12 1.03e-12 1.04e-12 1.06e-12 1.08e-12 1.11e-12 1.17e-12 1.24e-12 1.33e-12 1.43e-12 1.54e-12 1.67e-12 1.8e-12 1.95e-12 2.1e-12 2.26e-12 
05 04 01  02 02 00 1.59e-12 1.49e-12 1.43e-12 1.36e-12 1.33e-12 1.31e-12 1.32e-12 1.33e-12 1.34e-12 1.37e-12 1.39e-12 1.46e-12 1.54e-12 1.63e-12 1.73e-12 1.83e-12 1.93e-12 2.03e-12 2.13e-12 2.23e-12 2.33e-12 
05 04 01  03 02 02 5.5e-13 5.4e-13 5.3e-13 5.3e-13 5.4e-13 5.6e-13 5.9e-13 6.1e-13 6.4e-13 6.8e-13 7.1e-13 7.7e-13 8.4e-13 9.1e-13 9.8e-13 1.05e-12 1.12e-12 1.19e-12 1.25e-12 1.31e-12 1.37e-12 
05 04 01  03 02 01 2.61e-12 2.49e-12 2.43e-12 2.41e-12 2.46e-12 2.55e-12 2.65e-12 2.77e-12 2.89e-12 3.01e-12 3.13e-12 3.38e-12 3.63e-12 3.87e-12 4.11e-12 4.34e-12 4.58e-12 4.81e-12 5.04e-12 5.27e-12 5.5e-12 
05 04 01  04 02 03 1.19e-12 1.22e-12 1.28e-12 1.42e-12 1.57e-12 1.73e-12 1.88e-12 2.03e-12 2.18e-12 2.31e-12 2.45e-12 2.71e-12 2.95e-12 3.19e-12 3.41e-12 3.63e-12 3.84e-12 4.05e-12 4.26e-12 4.46e-12 4.66e-12 
05 04 01  04 02 02 2.22e-12 2.06e-12 1.97e-12 1.87e-12 1.83e-12 1.83e-12 1.85e-12 1.89e-12 1.94e-12 1.99e-12 2.05e-12 2.19e-12 2.33e-12 2.48e-12 2.63e-12 2.78e-12 2.93e-12 3.08e-12 3.23e-12 3.38e-12 3.52e-12 
05 04 01  05 02 04 1.67e-12 1.74e-12 1.83e-12 2.03e-12 2.21e-12 2.37e-12 2.52e-12 2.65e-12 2.79e-12 2.91e-12 3.03e-12 3.27e-12 3.5e-12 3.72e-12 3.93e-12 4.15e-12 4.35e-12 4.56e-12 4.77e-12 4.97e-12 5.18e-12 
05 04 01  05 02 03 1.45e-12 1.4e-12 1.4e-12 1.47e-12 1.57e-12 1.69e-12 1.81e-12 1.94e-12 2.06e-12 2.17e-12 2.29e-12 2.51e-12 2.71e-12 2.9e-12 3.09e-12 3.26e-12 3.42e-12 3.59e-12 3.74e-12 3.89e-12 4.04e-12 
05 04 01  06 02 05 1.23e-12 1.34e-12 1.47e-12 1.77e-12 2.06e-12 2.32e-12 2.57e-12 2.79e-12 3e-12 3.19e-12 3.36e-12 3.68e-12 3.97e-12 4.23e-12 4.47e-12 4.7e-12 4.92e-12 5.13e-12 5.34e-12 5.55e-12 5.76e-12 
05 04 01  06 02 04 1.88e-12 1.89e-12 1.94e-12 2.08e-12 2.24e-12 2.41e-12 2.56e-12 2.72e-12 2.87e-12 3.01e-12 3.16e-12 3.44e-12 3.7e-12 3.96e-12 4.21e-12 4.45e-12 4.67e-12 4.89e-12 5.11e-12 5.31e-12 5.51e-12 
05 04 01  07 02 06 2.44e-12 2.52e-12 2.63e-12 2.87e-12 3.12e-12 3.36e-12 3.6e-12 3.83e-12 4.06e-12 4.27e-12 4.48e-12 4.88e-12 5.26e-12 5.62e-12 5.98e-12 6.32e-12 6.67e-12 7.01e-12 7.35e-12 7.69e-12 8.03e-12 
05 04 01  07 02 05 1.75e-12 1.8e-12 1.89e-12 2.11e-12 2.31e-12 2.5e-12 2.67e-12 2.82e-12 2.96e-12 3.09e-12 3.21e-12 3.44e-12 3.65e-12 3.84e-12 4.02e-12 4.2e-12 4.36e-12 4.51e-12 4.66e-12 4.8e-12 4.93e-12 
05 04 01  08 02 07 8.1e-13 8.6e-13 9.4e-13 1.12e-12 1.32e-12 1.53e-12 1.75e-12 1.96e-12 2.16e-12 2.36e-12 2.56e-12 2.92e-12 3.25e-12 3.57e-12 3.86e-12 4.14e-12 4.41e-12 4.67e-12 4.92e-12 5.16e-12 5.39e-12 
05 04 01  08 02 06 3.35e-12 3.4e-12 3.53e-12 3.79e-12 4.03e-12 4.23e-12 4.41e-12 4.58e-12 4.75e-12 4.91e-12 5.07e-12 5.37e-12 5.67e-12 5.95e-12 6.23e-12 6.51e-12 6.77e-12 7.04e-12 7.3e-12 7.55e-12 7.81e-12 
05 04 01  09 02 08 1.66e-12 1.77e-12 1.9e-12 2.15e-12 2.4e-12 2.64e-12 2.86e-12 3.08e-12 3.29e-12 3.49e-12 3.69e-12 4.06e-12 4.42e-12 4.75e-12 5.07e-12 5.37e-12 5.66e-12 5.94e-12 6.21e-12 6.47e-12 6.72e-12 
05 04 01  09 02 07 5.9e-13 6.8e-13 8e-13 1.05e-12 1.3e-12 1.55e-12 1.77e-12 1.98e-12 2.18e-12 2.37e-12 2.55e-12 2.88e-12 3.18e-12 3.47e-12 3.73e-12 3.98e-12 4.21e-12 4.42e-12 4.62e-12 4.82e-12 5e-12 
05 04 01  10 02 09 7e-13 8.8e-13 1.04e-12 1.36e-12 1.65e-12 1.91e-12 2.15e-12 2.37e-12 2.58e-12 2.78e-12 2.97e-12 3.33e-12 3.65e-12 3.95e-12 4.24e-12 4.5e-12 4.75e-12 4.98e-12 5.2e-12 5.41e-12 5.62e-12 
05 04 01  10 02 08 4.2e-13 5.1e-13 5.9e-13 7.8e-13 1e-12 1.23e-12 1.47e-12 1.69e-12 1.91e-12 2.13e-12 2.33e-12 2.72e-12 3.07e-12 3.41e-12 3.72e-12 4.01e-12 4.29e-12 4.54e-12 4.79e-12 5.01e-12 5.23e-12 
05 04 01  11 02 10 4e-14 1.6e-13 3.3e-13 7.6e-13 1.24e-12 1.74e-12 2.21e-12 2.67e-12 3.09e-12 3.49e-12 3.86e-12 4.53e-12 5.12e-12 5.64e-12 6.11e-12 6.53e-12 6.91e-12 7.26e-12 7.58e-12 7.87e-12 8.14e-12 
05 04 01  11 02 09 2e-14 7e-14 1.4e-13 2.8e-13 4.2e-13 5.6e-13 7e-13 8.4e-13 9.9e-13 1.13e-12 1.27e-12 1.55e-12 1.83e-12 2.09e-12 2.35e-12 2.6e-12 2.86e-12 3.11e-12 3.36e-12 3.62e-12 3.88e-12 
05 04 01  04 04 01 1.4e-11 1.46e-11 1.5e-11 1.59e-11 1.68e-11 1.78e-11 1.87e-11 1.97e-11 2.06e-11 2.15e-11 2.23e-11 2.38e-11 2.52e-11 2.64e-11 2.74e-11 2.84e-11 2.93e-11 3e-11 3.07e-11 3.14e-11 3.19e-11 
05 04 01  04 04 00 3.04e-11 3.06e-11 3.09e-11 3.16e-11 3.22e-11 3.27e-11 3.31e-11 3.35e-11 3.39e-11 3.42e-11 3.45e-11 3.5e-11 3.55e-11 3.59e-11 3.62e-11 3.65e-11 3.67e-11 3.69e-11 3.71e-11 3.72e-11 3.73e-11 
05 04 01  05 04 02 7.45e-11 7.81e-11 7.97e-11 8.1e-11 8.11e-11 8.09e-11 8.04e-11 8e-11 7.95e-11 7.9e-11 7.86e-11 7.78e-11 7.73e-11 7.68e-11 7.65e-11 7.62e-11 7.6e-11 7.58e-11 7.56e-11 7.54e-11 7.52e-11 
05 04 01  05 04 01 0 0 0 0 0 0 0 0 0 0 0 0 0 0 0 0 0 0 0 0 0 
05 04 01  06 04 03 1.26e-12 2.64e-12 3.95e-12 6.23e-12 8.26e-12 1e-11 1.17e-11 1.33e-11 1.48e-11 1.62e-11 1.74e-11 1.98e-11 2.17e-11 2.34e-11 2.49e-11 2.63e-11 2.74e-11 2.85e-11 2.94e-11 3.03e-11 3.11e-11 
05 04 01  06 04 02 4.81e-12 9.9e-12 1.44e-11 2.13e-11 2.61e-11 2.95e-11 3.22e-11 3.42e-11 3.57e-11 3.71e-11 3.82e-11 4.01e-11 4.15e-11 4.27e-11 4.38e-11 4.46e-11 4.54e-11 4.61e-11 4.68e-11 4.74e-11 4.78e-11 
05 04 01  07 04 04 1.2e-13 5.5e-13 1.22e-12 2.77e-12 4.29e-12 5.66e-12 6.91e-12 8.05e-12 9.04e-12 9.96e-12 1.07e-11 1.22e-11 1.35e-11 1.46e-11 1.56e-11 1.64e-11 1.73e-11 1.81e-11 1.88e-11 1.94e-11 2e-11 
05 04 01  07 04 03 8e-14 3.6e-13 7.7e-13 1.65e-12 2.46e-12 3.2e-12 3.91e-12 4.58e-12 5.22e-12 5.84e-12 6.46e-12 7.62e-12 8.71e-12 9.74e-12 1.07e-11 1.16e-11 1.24e-11 1.32e-11 1.39e-11 1.45e-11 1.51e-11 
06 04 03  00 00 00 0 0 0 0 0 0 0 0 0 0 0 0 0 0 0 0 0 0 0 0 0 
06 04 03  01 00 01 2.9e-13 2.6e-13 2.5e-13 2.4e-13 2.4e-13 2.4e-13 2.5e-13 2.6e-13 2.7e-13 2.8e-13 2.9e-13 3.2e-13 3.5e-13 3.7e-13 4e-13 4.3e-13 4.6e-13 4.9e-13 5.2e-13 5.5e-13 5.9e-13 
06 04 03  02 00 02 1.09e-12 1.02e-12 9.9e-13 9.7e-13 9.7e-13 9.8e-13 1.01e-12 1.04e-12 1.07e-12 1.12e-12 1.16e-12 1.26e-12 1.36e-12 1.47e-12 1.59e-12 1.7e-12 1.82e-12 1.95e-12 2.08e-12 2.21e-12 2.34e-12 
06 04 03  03 00 03 1.12e-12 1.03e-12 9.9e-13 9.6e-13 9.6e-13 9.8e-13 1e-12 1.03e-12 1.07e-12 1.11e-12 1.15e-12 1.24e-12 1.34e-12 1.44e-12 1.54e-12 1.64e-12 1.74e-12 1.84e-12 1.94e-12 2.04e-12 2.13e-12 
06 04 03  04 00 04 6.4e-13 5.9e-13 5.7e-13 5.7e-13 5.8e-13 6e-13 6.3e-13 6.5e-13 6.8e-13 7.1e-13 7.5e-13 8.2e-13 9e-13 9.8e-13 1.07e-12 1.15e-12 1.23e-12 1.31e-12 1.38e-12 1.46e-12 1.53e-12 
06 04 03  05 00 05 7.1e-13 6.6e-13 6.3e-13 6.2e-13 6.4e-13 6.7e-13 7e-13 7.5e-13 7.9e-13 8.4e-13 8.9e-13 9.9e-13 1.09e-12 1.19e-12 1.28e-12 1.37e-12 1.46e-12 1.55e-12 1.63e-12 1.71e-12 1.8e-12 
06 04 03  06 00 06 1.67e-12 1.55e-12 1.49e-12 1.43e-12 1.43e-12 1.45e-12 1.49e-12 1.53e-12 1.57e-12 1.61e-12 1.66e-12 1.75e-12 1.84e-12 1.92e-12 2e-12 2.08e-12 2.16e-12 2.24e-12 2.31e-12 2.39e-12 2.47e-12 
06 04 03  07 00 07 1.65e-12 1.54e-12 1.49e-12 1.48e-12 1.52e-12 1.59e-12 1.65e-12 1.72e-12 1.79e-12 1.86e-12 1.93e-12 2.06e-12 2.19e-12 2.31e-12 2.42e-12 2.53e-12 2.64e-12 2.74e-12 2.85e-12 2.95e-12 3.04e-12 
06 04 03  08 00 08 1.2e-12 1.14e-12 1.13e-12 1.19e-12 1.29e-12 1.41e-12 1.53e-12 1.64e-12 1.76e-12 1.88e-12 1.99e-12 2.2e-12 2.39e-12 2.58e-12 2.75e-12 2.91e-12 3.05e-12 3.19e-12 3.32e-12 3.44e-12 3.55e-12 
06 04 03  09 00 09 1.3e-12 1.26e-12 1.28e-12 1.36e-12 1.48e-12 1.61e-12 1.75e-12 1.88e-12 2.01e-12 2.14e-12 2.26e-12 2.48e-12 2.69e-12 2.88e-12 3.05e-12 3.21e-12 3.36e-12 3.5e-12 3.64e-12 3.77e-12 3.89e-12 
06 04 03  10 00 10 1.53e-12 1.53e-12 1.59e-12 1.76e-12 1.93e-12 2.1e-12 2.26e-12 2.41e-12 2.55e-12 2.68e-12 2.8e-12 3.03e-12 3.24e-12 3.44e-12 3.62e-12 3.8e-12 3.98e-12 4.16e-12 4.34e-12 4.53e-12 4.71e-12 
06 04 03  11 00 11 1.43e-12 1.53e-12 1.67e-12 1.96e-12 2.24e-12 2.49e-12 2.72e-12 2.92e-12 3.11e-12 3.28e-12 3.44e-12 3.73e-12 4e-12 4.25e-12 4.49e-12 4.72e-12 4.94e-12 5.15e-12 5.35e-12 5.56e-12 5.76e-12 
06 04 03  12 00 12 2.9e-13 4.6e-13 6e-13 8.7e-13 1.12e-12 1.38e-12 1.62e-12 1.86e-12 2.09e-12 2.32e-12 2.53e-12 2.95e-12 3.35e-12 3.73e-12 4.09e-12 4.43e-12 4.76e-12 5.07e-12 5.36e-12 5.64e-12 5.91e-12 
06 04 03  02 02 01 2.03e-12 1.88e-12 1.81e-12 1.73e-12 1.7e-12 1.69e-12 1.71e-12 1.73e-12 1.77e-12 1.81e-12 1.86e-12 1.96e-12 2.07e-12 2.19e-12 2.31e-12 2.43e-12 2.55e-12 2.67e-12 2.79e-12 2.91e-12 3.03e-12 
06 04 03  02 02 00 1.37e-12 1.25e-12 1.19e-12 1.11e-12 1.06e-12 1.04e-12 1.03e-12 1.03e-12 1.03e-12 1.04e-12 1.06e-12 1.1e-12 1.15e-12 1.21e-12 1.27e-12 1.34e-12 1.4e-12 1.47e-12 1.54e-12 1.6e-12 1.67e-12 
06 04 03  03 02 02 2.22e-12 2.07e-12 1.99e-12 1.93e-12 1.9e-12 1.9e-12 1.91e-12 1.93e-12 1.95e-12 1.98e-12 2.01e-12 2.07e-12 2.14e-12 2.21e-12 2.29e-12 2.37e-12 2.46e-12 2.54e-12 2.63e-12 2.73e-12 2.82e-12 
06 04 03  03 02 01 7.8e-13 7.2e-13 7e-13 6.7e-13 6.7e-13 6.7e-13 6.8e-13 7e-13 7.1e-13 7.3e-13 7.5e-13 8e-13 8.6e-13 9.3e-13 1.01e-12 1.1e-12 1.2e-12 1.32e-12 1.45e-12 1.59e-12 1.74e-12 
06 04 03  04 02 03 2.88e-12 2.7e-12 2.63e-12 2.63e-12 2.72e-12 2.85e-12 2.99e-12 3.14e-12 3.3e-12 3.46e-12 3.62e-12 3.94e-12 4.26e-12 4.57e-12 4.89e-12 5.19e-12 5.5e-12 5.8e-12 6.1e-12 6.39e-12 6.69e-12 
06 04 03  04 02 02 6.1e-13 5.6e-13 5.3e-13 5.1e-13 5.1e-13 5.2e-13 5.4e-13 5.6e-13 5.8e-13 6.1e-13 6.3e-13 6.9e-13 7.5e-13 8.1e-13 8.7e-13 9.4e-13 1e-12 1.06e-12 1.13e-12 1.19e-12 1.26e-12 
06 04 03  05 02 04 1.56e-12 1.45e-12 1.42e-12 1.43e-12 1.49e-12 1.58e-12 1.68e-12 1.78e-12 1.89e-12 2.01e-12 2.12e-12 2.35e-12 2.58e-12 2.8e-12 3.01e-12 3.22e-12 3.42e-12 3.62e-12 3.81e-12 3.99e-12 4.17e-12 
06 04 03  05 02 03 2.45e-12 2.33e-12 2.31e-12 2.39e-12 2.53e-12 2.69e-12 2.87e-12 3.04e-12 3.21e-12 3.38e-12 3.54e-12 3.85e-12 4.15e-12 4.44e-12 4.71e-12 4.97e-12 5.23e-12 5.47e-12 5.71e-12 5.94e-12 6.17e-12 
06 04 03  06 02 05 1.17e-12 1.13e-12 1.15e-12 1.25e-12 1.39e-12 1.56e-12 1.73e-12 1.9e-12 2.07e-12 2.24e-12 2.41e-12 2.73e-12 3.04e-12 3.34e-12 3.63e-12 3.91e-12 4.18e-12 4.45e-12 4.7e-12 4.95e-12 5.2e-12 
06 04 03  06 02 04 3.7e-12 3.49e-12 3.42e-12 3.42e-12 3.5e-12 3.61e-12 3.73e-12 3.86e-12 4e-12 4.15e-12 4.3e-12 4.61e-12 4.92e-12 5.22e-12 5.52e-12 5.8e-12 6.07e-12 6.33e-12 6.58e-12 6.82e-12 7.04e-12 
06 04 03  07 02 06 1.36e-12 1.33e-12 1.37e-12 1.54e-12 1.76e-12 1.99e-12 2.21e-12 2.43e-12 2.64e-12 2.85e-12 3.05e-12 3.44e-12 3.81e-12 4.16e-12 4.5e-12 4.83e-12 5.14e-12 5.44e-12 5.73e-12 6.02e-12 6.29e-12 
06 04 03  07 02 05 2.15e-12 2.09e-12 2.12e-12 2.31e-12 2.56e-12 2.83e-12 3.09e-12 3.34e-12 3.58e-12 3.81e-12 4.02e-12 4.43e-12 4.8e-12 5.14e-12 5.46e-12 5.76e-12 6.04e-12 6.3e-12 6.55e-12 6.79e-12 7.01e-12 
06 04 03  08 02 07 1.33e-12 1.31e-12 1.34e-12 1.5e-12 1.7e-12 1.91e-12 2.12e-12 2.32e-12 2.52e-12 2.71e-12 2.89e-12 3.22e-12 3.53e-12 3.82e-12 4.1e-12 4.37e-12 4.63e-12 4.89e-12 5.14e-12 5.39e-12 5.64e-12 
06 04 03  08 02 06 2.3e-12 2.28e-12 2.34e-12 2.54e-12 2.78e-12 3.04e-12 3.3e-12 3.56e-12 3.82e-12 4.07e-12 4.32e-12 4.8e-12 5.25e-12 5.69e-12 6.12e-12 6.54e-12 6.94e-12 7.34e-12 7.73e-12 8.12e-12 8.49e-12 
06 04 03  09 02 08 3.18e-12 3.18e-12 3.26e-12 3.47e-12 3.67e-12 3.86e-12 4.04e-12 4.21e-12 4.37e-12 4.53e-12 4.69e-12 4.99e-12 5.27e-12 5.53e-12 5.78e-12 6.02e-12 6.25e-12 6.47e-12 6.68e-12 6.88e-12 7.07e-12 
06 04 03  09 02 07 1.61e-12 1.62e-12 1.7e-12 1.9e-12 2.14e-12 2.4e-12 2.66e-12 2.92e-12 3.16e-12 3.4e-12 3.62e-12 4.04e-12 4.42e-12 4.77e-12 5.11e-12 5.43e-12 5.74e-12 6.05e-12 6.35e-12 6.66e-12 6.97e-12 
06 04 03  10 02 09 1.31e-12 1.33e-12 1.38e-12 1.53e-12 1.72e-12 1.91e-12 2.11e-12 2.3e-12 2.49e-12 2.66e-12 2.83e-12 3.14e-12 3.43e-12 3.69e-12 3.94e-12 4.17e-12 4.39e-12 4.6e-12 4.81e-12 5e-12 5.2e-12 
06 04 03  10 02 08 2.46e-12 2.58e-12 2.74e-12 3.09e-12 3.42e-12 3.73e-12 4e-12 4.25e-12 4.49e-12 4.7e-12 4.9e-12 5.26e-12 5.58e-12 5.88e-12 6.16e-12 6.42e-12 6.68e-12 6.92e-12 7.16e-12 7.4e-12 7.64e-12 
06 04 03  11 02 10 2.4e-13 4.4e-13 6.3e-13 9.8e-13 1.32e-12 1.63e-12 1.94e-12 2.22e-12 2.49e-12 2.75e-12 2.99e-12 3.43e-12 3.83e-12 4.19e-12 4.53e-12 4.84e-12 5.14e-12 5.42e-12 5.69e-12 5.95e-12 6.2e-12 
06 04 03  11 02 09 1.5e-13 2.9e-13 4.3e-13 7.3e-13 1.04e-12 1.34e-12 1.63e-12 1.9e-12 2.15e-12 2.39e-12 2.62e-12 3.04e-12 3.43e-12 3.8e-12 4.16e-12 4.51e-12 4.85e-12 5.19e-12 5.52e-12 5.86e-12 6.19e-12 
06 04 03  04 04 01 8.41e-12 8.05e-12 7.84e-12 7.68e-12 7.74e-12 7.93e-12 8.19e-12 8.5e-12 8.85e-12 9.21e-12 9.58e-12 1.03e-11 1.11e-11 1.18e-11 1.25e-11 1.32e-11 1.39e-11 1.45e-11 1.51e-11 1.57e-11 1.62e-11 
06 04 03  04 04 00 1.28e-11 1.28e-11 1.29e-11 1.33e-11 1.38e-11 1.41e-11 1.45e-11 1.49e-11 1.53e-11 1.56e-11 1.6e-11 1.67e-11 1.73e-11 1.79e-11 1.84e-11 1.89e-11 1.93e-11 1.96e-11 2e-11 2.02e-11 2.05e-11 
06 04 03  05 04 02 3.33e-11 3.41e-11 3.5e-11 3.65e-11 3.75e-11 3.82e-11 3.88e-11 3.92e-11 3.96e-11 3.99e-11 4.02e-11 4.06e-11 4.11e-11 4.14e-11 4.18e-11 4.21e-11 4.24e-11 4.26e-11 4.28e-11 4.3e-11 4.31e-11 
06 04 03  05 04 01 8.69e-12 9.05e-12 9.54e-12 1.06e-11 1.18e-11 1.29e-11 1.41e-11 1.52e-11 1.63e-11 1.73e-11 1.82e-11 1.99e-11 2.13e-11 2.26e-11 2.37e-11 2.47e-11 2.55e-11 2.63e-11 2.7e-11 2.76e-11 2.82e-11 
06 04 03  06 04 03 0 0 0 0 0 0 0 0 0 0 0 0 0 0 0 0 0 0 0 0 0 
06 04 03  06 04 02 3.79e-11 4.4e-11 4.79e-11 5.21e-11 5.42e-11 5.52e-11 5.58e-11 5.6e-11 5.62e-11 5.62e-11 5.62e-11 5.61e-11 5.61e-11 5.61e-11 5.62e-11 5.63e-11 5.65e-11 5.67e-11 5.69e-11 5.71e-11 5.74e-11 
06 04 03  07 04 04 3.95e-12 9.35e-12 1.45e-11 2.26e-11 2.83e-11 3.24e-11 3.55e-11 3.78e-11 3.97e-11 4.12e-11 4.25e-11 4.45e-11 4.61e-11 4.74e-11 4.84e-11 4.94e-11 5.02e-11 5.1e-11 5.16e-11 5.21e-11 5.26e-11 
06 04 03  07 04 03 5.9e-13 1.4e-12 2.23e-12 3.83e-12 5.35e-12 6.81e-12 8.21e-12 9.6e-12 1.09e-11 1.2e-11 1.32e-11 1.53e-11 1.71e-11 1.87e-11 2.01e-11 2.14e-11 2.26e-11 2.36e-11 2.46e-11 2.55e-11 2.62e-11 
06 04 02  00 00 00 2.8e-13 2.5e-13 2.4e-13 2.2e-13 2.2e-13 2.2e-13 2.2e-13 2.2e-13 2.3e-13 2.4e-13 2.5e-13 2.7e-13 3e-13 3.2e-13 3.5e-13 3.8e-13 4.1e-13 4.4e-13 4.8e-13 5.2e-13 5.5e-13 
06 04 02  01 00 01 6.5e-13 6.1e-13 5.8e-13 5.5e-13 5.4e-13 5.4e-13 5.5e-13 5.6e-13 5.7e-13 5.9e-13 6.1e-13 6.6e-13 7.1e-13 7.6e-13 8.1e-13 8.7e-13 9.2e-13 9.8e-13 1.04e-12 1.1e-12 1.17e-12 
06 04 02  02 00 02 3.9e-13 3.7e-13 3.5e-13 3.4e-13 3.4e-13 3.5e-13 3.6e-13 3.7e-13 3.9e-13 4.1e-13 4.3e-13 4.8e-13 5.4e-13 5.9e-13 6.4e-13 7e-13 7.5e-13 8e-13 8.4e-13 8.8e-13 9.3e-13 
06 04 02  03 00 03 5.6e-13 5.3e-13 5.2e-13 5.3e-13 5.5e-13 5.8e-13 6.2e-13 6.6e-13 7.1e-13 7.5e-13 8e-13 9.1e-13 1.02e-12 1.14e-12 1.26e-12 1.38e-12 1.5e-12 1.62e-12 1.74e-12 1.86e-12 1.99e-12 
06 04 02  04 00 04 1.21e-12 1.13e-12 1.1e-12 1.08e-12 1.11e-12 1.16e-12 1.22e-12 1.29e-12 1.36e-12 1.44e-12 1.52e-12 1.68e-12 1.83e-12 1.98e-12 2.13e-12 2.26e-12 2.39e-12 2.52e-12 2.63e-12 2.75e-12 2.86e-12 
06 04 02  05 00 05 1.52e-12 1.42e-12 1.37e-12 1.35e-12 1.37e-12 1.4e-12 1.45e-12 1.51e-12 1.57e-12 1.63e-12 1.7e-12 1.84e-12 1.99e-12 2.15e-12 2.3e-12 2.46e-12 2.63e-12 2.79e-12 2.96e-12 3.13e-12 3.3e-12 
06 04 02  06 00 06 9.4e-13 8.8e-13 8.6e-13 8.6e-13 8.9e-13 9.4e-13 9.9e-13 1.05e-12 1.12e-12 1.19e-12 1.26e-12 1.41e-12 1.58e-12 1.75e-12 1.92e-12 2.09e-12 2.27e-12 2.45e-12 2.63e-12 2.81e-12 2.99e-12 
06 04 02  07 00 07 9.3e-13 9e-13 9e-13 9.4e-13 1e-12 1.07e-12 1.15e-12 1.24e-12 1.32e-12 1.4e-12 1.49e-12 1.66e-12 1.82e-12 1.99e-12 2.15e-12 2.31e-12 2.47e-12 2.63e-12 2.79e-12 2.95e-12 3.11e-12 
06 04 02  08 00 08 1.17e-12 1.14e-12 1.16e-12 1.25e-12 1.37e-12 1.5e-12 1.62e-12 1.74e-12 1.86e-12 1.96e-12 2.07e-12 2.26e-12 2.43e-12 2.59e-12 2.74e-12 2.88e-12 3.02e-12 3.15e-12 3.28e-12 3.41e-12 3.53e-12 
06 04 02  09 00 09 1.37e-12 1.36e-12 1.41e-12 1.58e-12 1.77e-12 1.96e-12 2.15e-12 2.31e-12 2.47e-12 2.61e-12 2.75e-12 2.98e-12 3.19e-12 3.38e-12 3.54e-12 3.69e-12 3.83e-12 3.97e-12 4.09e-12 4.21e-12 4.32e-12 
06 04 02  10 00 10 1.81e-12 1.8e-12 1.87e-12 2.05e-12 2.26e-12 2.46e-12 2.65e-12 2.83e-12 2.99e-12 3.14e-12 3.29e-12 3.56e-12 3.82e-12 4.06e-12 4.3e-12 4.53e-12 4.75e-12 4.98e-12 5.21e-12 5.43e-12 5.66e-12 
06 04 02  11 00 11 1.33e-12 1.38e-12 1.47e-12 1.65e-12 1.84e-12 2.02e-12 2.2e-12 2.38e-12 2.54e-12 2.71e-12 2.87e-12 3.18e-12 3.48e-12 3.79e-12 4.1e-12 4.41e-12 4.73e-12 5.05e-12 5.38e-12 5.71e-12 6.05e-12 
06 04 02  12 00 12 2.9e-13 4.7e-13 6.3e-13 9.3e-13 1.2e-12 1.46e-12 1.71e-12 1.94e-12 2.17e-12 2.39e-12 2.6e-12 3.01e-12 3.4e-12 3.78e-12 4.13e-12 4.46e-12 4.77e-12 5.06e-12 5.34e-12 5.59e-12 5.83e-12 
06 04 02  02 02 01 7.9e-13 7.5e-13 7.4e-13 7.3e-13 7.3e-13 7.3e-13 7.4e-13 7.5e-13 7.7e-13 7.8e-13 8.1e-13 8.5e-13 9.1e-13 9.7e-13 1.03e-12 1.1e-12 1.17e-12 1.24e-12 1.31e-12 1.38e-12 1.45e-12 
06 04 02  02 02 00 1.31e-12 1.24e-12 1.2e-12 1.18e-12 1.19e-12 1.2e-12 1.23e-12 1.26e-12 1.29e-12 1.33e-12 1.37e-12 1.46e-12 1.57e-12 1.68e-12 1.82e-12 1.96e-12 2.12e-12 2.3e-12 2.48e-12 2.68e-12 2.89e-12 
06 04 02  03 02 02 1.34e-12 1.25e-12 1.2e-12 1.15e-12 1.12e-12 1.11e-12 1.1e-12 1.1e-12 1.11e-12 1.12e-12 1.13e-12 1.15e-12 1.18e-12 1.2e-12 1.23e-12 1.26e-12 1.28e-12 1.31e-12 1.33e-12 1.35e-12 1.37e-12 
06 04 02  03 02 01 2.58e-12 2.39e-12 2.29e-12 2.17e-12 2.1e-12 2.06e-12 2.04e-12 2.03e-12 2.02e-12 2.03e-12 2.04e-12 2.07e-12 2.12e-12 2.17e-12 2.24e-12 2.31e-12 2.39e-12 2.47e-12 2.56e-12 2.65e-12 2.75e-12 
06 04 02  04 02 03 1.05e-12 9.8e-13 9.5e-13 9.2e-13 9.1e-13 9.1e-13 9.3e-13 9.4e-13 9.7e-13 9.9e-13 1.02e-12 1.09e-12 1.17e-12 1.25e-12 1.33e-12 1.42e-12 1.5e-12 1.59e-12 1.67e-12 1.76e-12 1.84e-12 
06 04 02  04 02 02 3.92e-12 3.67e-12 3.55e-12 3.48e-12 3.49e-12 3.55e-12 3.63e-12 3.73e-12 3.84e-12 3.95e-12 4.06e-12 4.29e-12 4.53e-12 4.77e-12 5e-12 5.24e-12 5.47e-12 5.7e-12 5.93e-12 6.16e-12 6.39e-12 
06 04 02  05 02 04 1.72e-12 1.66e-12 1.68e-12 1.81e-12 2.01e-12 2.22e-12 2.42e-12 2.63e-12 2.82e-12 3.01e-12 3.19e-12 3.54e-12 3.87e-12 4.18e-12 4.49e-12 4.78e-12 5.07e-12 5.34e-12 5.61e-12 5.87e-12 6.12e-12 
06 04 02  05 02 03 2.57e-12 2.42e-12 2.35e-12 2.32e-12 2.34e-12 2.38e-12 2.44e-12 2.51e-12 2.58e-12 2.65e-12 2.72e-12 2.87e-12 3.03e-12 3.17e-12 3.32e-12 3.46e-12 3.6e-12 3.73e-12 3.86e-12 3.99e-12 4.11e-12 
06 04 02  06 02 05 1.8e-12 1.69e-12 1.65e-12 1.7e-12 1.82e-12 1.95e-12 2.1e-12 2.24e-12 2.4e-12 2.55e-12 2.7e-12 2.99e-12 3.28e-12 3.56e-12 3.83e-12 4.09e-12 4.33e-12 4.57e-12 4.79e-12 5e-12 5.21e-12 
06 04 02  06 02 04 1.17e-12 1.14e-12 1.17e-12 1.31e-12 1.48e-12 1.66e-12 1.84e-12 2.01e-12 2.17e-12 2.32e-12 2.46e-12 2.73e-12 2.97e-12 3.19e-12 3.4e-12 3.6e-12 3.79e-12 3.98e-12 4.16e-12 4.34e-12 4.51e-12 
06 04 02  07 02 06 1.37e-12 1.3e-12 1.29e-12 1.35e-12 1.46e-12 1.6e-12 1.75e-12 1.91e-12 2.06e-12 2.22e-12 2.38e-12 2.68e-12 2.96e-12 3.24e-12 3.5e-12 3.75e-12 4e-12 4.24e-12 4.47e-12 4.7e-12 4.93e-12 
06 04 02  07 02 05 1.89e-12 1.84e-12 1.86e-12 1.99e-12 2.17e-12 2.35e-12 2.53e-12 2.71e-12 2.88e-12 3.04e-12 3.2e-12 3.51e-12 3.81e-12 4.09e-12 4.37e-12 4.63e-12 4.88e-12 5.13e-12 5.37e-12 5.6e-12 5.82e-12 
06 04 02  08 02 07 2.46e-12 2.4e-12 2.42e-12 2.52e-12 2.66e-12 2.82e-12 2.98e-12 3.15e-12 3.31e-12 3.48e-12 3.63e-12 3.93e-12 4.21e-12 4.47e-12 4.72e-12 4.95e-12 5.18e-12 5.39e-12 5.6e-12 5.81e-12 6.01e-12 
06 04 02  08 02 06 2.88e-12 2.75e-12 2.73e-12 2.85e-12 3.06e-12 3.29e-12 3.53e-12 3.75e-12 3.97e-12 4.18e-12 4.37e-12 4.73e-12 5.06e-12 5.37e-12 5.65e-12 5.92e-12 6.17e-12 6.42e-12 6.65e-12 6.88e-12 7.1e-12 
06 04 02  09 02 08 1.31e-12 1.32e-12 1.38e-12 1.54e-12 1.74e-12 1.94e-12 2.15e-12 2.34e-12 2.53e-12 2.71e-12 2.88e-12 3.19e-12 3.48e-12 3.74e-12 3.99e-12 4.22e-12 4.44e-12 4.66e-12 4.86e-12 5.06e-12 5.26e-12 
06 04 02  09 02 07 3.9e-12 3.9e-12 4.01e-12 4.32e-12 4.63e-12 4.92e-12 5.19e-12 5.45e-12 5.69e-12 5.92e-12 6.14e-12 6.55e-12 6.94e-12 7.3e-12 7.64e-12 7.95e-12 8.25e-12 8.53e-12 8.79e-12 9.04e-12 9.28e-12 
06 04 02  10 02 09 1.95e-12 2.07e-12 2.21e-12 2.5e-12 2.77e-12 3.02e-12 3.25e-12 3.47e-12 3.68e-12 3.87e-12 4.05e-12 4.38e-12 4.68e-12 4.94e-12 5.19e-12 5.4e-12 5.6e-12 5.78e-12 5.93e-12 6.08e-12 6.21e-12 
06 04 02  10 02 08 1.06e-12 1.12e-12 1.22e-12 1.47e-12 1.77e-12 2.08e-12 2.38e-12 2.67e-12 2.95e-12 3.22e-12 3.47e-12 3.94e-12 4.37e-12 4.78e-12 5.17e-12 5.56e-12 5.93e-12 6.31e-12 6.68e-12 7.06e-12 7.44e-12 
06 04 02  11 02 10 2.4e-13 4.6e-13 6.6e-13 1.01e-12 1.34e-12 1.64e-12 1.93e-12 2.2e-12 2.45e-12 2.7e-12 2.93e-12 3.36e-12 3.76e-12 4.14e-12 4.5e-12 4.85e-12 5.2e-12 5.55e-12 5.89e-12 6.24e-12 6.6e-12 
06 04 02  11 02 09 1.8e-13 3.3e-13 4.7e-13 7.3e-13 9.9e-13 1.25e-12 1.51e-12 1.76e-12 2e-12 2.23e-12 2.46e-12 2.88e-12 3.28e-12 3.66e-12 4.01e-12 4.34e-12 4.66e-12 4.97e-12 5.26e-12 5.55e-12 5.82e-12 
06 04 02  04 04 01 1.3e-11 1.29e-11 1.3e-11 1.34e-11 1.38e-11 1.42e-11 1.46e-11 1.49e-11 1.53e-11 1.56e-11 1.6e-11 1.66e-11 1.73e-11 1.78e-11 1.83e-11 1.88e-11 1.92e-11 1.96e-11 1.99e-11 2.02e-11 2.05e-11 
06 04 02  04 04 00 8.55e-12 8.16e-12 7.94e-12 7.77e-12 7.84e-12 8.05e-12 8.34e-12 8.69e-12 9.07e-12 9.47e-12 9.88e-12 1.07e-11 1.15e-11 1.23e-11 1.31e-11 1.38e-11 1.45e-11 1.51e-11 1.57e-11 1.62e-11 1.67e-11 
06 04 02  05 04 02 8.39e-12 8.74e-12 9.22e-12 1.03e-11 1.15e-11 1.27e-11 1.38e-11 1.5e-11 1.6e-11 1.71e-11 1.8e-11 1.97e-11 2.12e-11 2.25e-11 2.36e-11 2.46e-11 2.55e-11 2.63e-11 2.7e-11 2.77e-11 2.82e-11 
06 04 02  05 04 01 3.31e-11 3.39e-11 3.48e-11 3.63e-11 3.73e-11 3.8e-11 3.86e-11 3.9e-11 3.93e-11 3.96e-11 3.99e-11 4.04e-11 4.08e-11 4.12e-11 4.16e-11 4.19e-11 4.23e-11 4.26e-11 4.29e-11 4.32e-11 4.34e-11 
06 04 02  06 04 03 3.79e-11 4.4e-11 4.79e-11 5.21e-11 5.42e-11 5.52e-11 5.58e-11 5.6e-11 5.62e-11 5.62e-11 5.62e-11 5.61e-11 5.61e-11 5.61e-11 5.62e-11 5.63e-11 5.65e-11 5.67e-11 5.69e-11 5.71e-11 5.74e-11 
06 04 02  06 04 02 0 0 0 0 0 0 0 0 0 0 0 0 0 0 0 0 0 0 0 0 0 
06 04 02  07 04 04 5.8e-13 1.38e-12 2.22e-12 3.84e-12 5.4e-12 6.9e-12 8.37e-12 9.76e-12 1.11e-11 1.23e-11 1.35e-11 1.56e-11 1.75e-11 1.92e-11 2.06e-11 2.2e-11 2.32e-11 2.43e-11 2.53e-11 2.62e-11 2.7e-11 
06 04 02  07 04 03 3.92e-12 9.29e-12 1.44e-11 2.25e-11 2.82e-11 3.23e-11 3.54e-11 3.77e-11 3.96e-11 4.11e-11 4.24e-11 4.44e-11 4.6e-11 4.72e-11 4.84e-11 4.93e-11 5.01e-11 5.08e-11 5.15e-11 5.21e-11 5.26e-11 
07 04 04  00 00 00 0 0 0 0 0 0 0 0 0 0 0 0 0 0 0 0 0 0 0 0 0 
07 04 04  01 00 01 2.6e-13 2.6e-13 2.7e-13 2.7e-13 2.8e-13 2.9e-13 3e-13 3.2e-13 3.3e-13 3.5e-13 3.6e-13 4e-13 4.4e-13 4.7e-13 5.1e-13 5.5e-13 5.8e-13 6.1e-13 6.4e-13 6.7e-13 7e-13 
07 04 04  02 00 02 6.3e-13 6.5e-13 6.6e-13 6.8e-13 7.1e-13 7.4e-13 7.7e-13 8.1e-13 8.6e-13 9e-13 9.5e-13 1.04e-12 1.13e-12 1.22e-12 1.31e-12 1.4e-12 1.48e-12 1.56e-12 1.64e-12 1.72e-12 1.79e-12 
07 04 04  03 00 03 1.08e-12 1.11e-12 1.14e-12 1.19e-12 1.25e-12 1.33e-12 1.4e-12 1.49e-12 1.57e-12 1.66e-12 1.74e-12 1.92e-12 2.1e-12 2.27e-12 2.43e-12 2.59e-12 2.75e-12 2.89e-12 3.04e-12 3.18e-12 3.31e-12 
07 04 04  04 00 04 7.6e-13 7.8e-13 7.9e-13 8.3e-13 8.7e-13 9.2e-13 9.8e-13 1.03e-12 1.08e-12 1.14e-12 1.19e-12 1.3e-12 1.4e-12 1.5e-12 1.6e-12 1.7e-12 1.8e-12 1.89e-12 1.99e-12 2.08e-12 2.17e-12 
07 04 04  05 00 05 6.8e-13 7e-13 7.2e-13 7.7e-13 8.1e-13 8.5e-13 8.9e-13 9.3e-13 9.7e-13 1e-12 1.03e-12 1.09e-12 1.16e-12 1.22e-12 1.28e-12 1.35e-12 1.42e-12 1.49e-12 1.56e-12 1.63e-12 1.71e-12 
07 04 04  06 00 06 1.16e-12 1.16e-12 1.17e-12 1.2e-12 1.25e-12 1.3e-12 1.36e-12 1.43e-12 1.49e-12 1.55e-12 1.61e-12 1.74e-12 1.85e-12 1.97e-12 2.08e-12 2.19e-12 2.3e-12 2.4e-12 2.5e-12 2.6e-12 2.69e-12 
07 04 04  07 00 07 1.93e-12 1.92e-12 1.91e-12 1.93e-12 1.99e-12 2.06e-12 2.14e-12 2.24e-12 2.33e-12 2.43e-12 2.53e-12 2.73e-12 2.92e-12 3.12e-12 3.32e-12 3.52e-12 3.71e-12 3.91e-12 4.11e-12 4.31e-12 4.5e-12 
07 04 04  08 00 08 1.53e-12 1.52e-12 1.52e-12 1.55e-12 1.61e-12 1.69e-12 1.8e-12 1.91e-12 2.02e-12 2.14e-12 2.26e-12 2.5e-12 2.72e-12 2.95e-12 3.16e-12 3.37e-12 3.57e-12 3.77e-12 3.96e-12 4.15e-12 4.33e-12 
07 04 04  09 00 09 9.4e-13 9.6e-13 9.9e-13 1.07e-12 1.18e-12 1.29e-12 1.41e-12 1.54e-12 1.66e-12 1.78e-12 1.9e-12 2.12e-12 2.34e-12 2.54e-12 2.73e-12 2.92e-12 3.1e-12 3.27e-12 3.44e-12 3.61e-12 3.77e-12 
07 04 04  10 00 10 1.25e-12 1.26e-12 1.3e-12 1.41e-12 1.54e-12 1.68e-12 1.82e-12 1.95e-12 2.07e-12 2.19e-12 2.3e-12 2.52e-12 2.72e-12 2.91e-12 3.08e-12 3.25e-12 3.41e-12 3.57e-12 3.72e-12 3.86e-12 4e-12 
07 04 04  11 00 11 1.81e-12 1.85e-12 1.91e-12 2.07e-12 2.26e-12 2.44e-12 2.62e-12 2.78e-12 2.94e-12 3.09e-12 3.24e-12 3.51e-12 3.78e-12 4.03e-12 4.28e-12 4.53e-12 4.77e-12 5.01e-12 5.26e-12 5.5e-12 5.75e-12 
07 04 04  12 00 12 1.71e-12 1.82e-12 1.96e-12 2.28e-12 2.6e-12 2.9e-12 3.18e-12 3.44e-12 3.69e-12 3.93e-12 4.15e-12 4.58e-12 4.98e-12 5.36e-12 5.72e-12 6.06e-12 6.39e-12 6.71e-12 7.01e-12 7.3e-12 7.59e-12 
07 04 04  02 02 01 1.39e-12 1.41e-12 1.43e-12 1.47e-12 1.51e-12 1.55e-12 1.59e-12 1.63e-12 1.66e-12 1.7e-12 1.74e-12 1.81e-12 1.88e-12 1.95e-12 2.02e-12 2.08e-12 2.15e-12 2.21e-12 2.27e-12 2.33e-12 2.39e-12 
07 04 04  02 02 00 1.41e-12 1.45e-12 1.49e-12 1.56e-12 1.62e-12 1.68e-12 1.74e-12 1.79e-12 1.83e-12 1.87e-12 1.91e-12 1.98e-12 2.05e-12 2.11e-12 2.16e-12 2.22e-12 2.27e-12 2.33e-12 2.38e-12 2.43e-12 2.48e-12 
07 04 04  03 02 02 1.52e-12 1.56e-12 1.6e-12 1.67e-12 1.76e-12 1.85e-12 1.94e-12 2.04e-12 2.13e-12 2.23e-12 2.33e-12 2.52e-12 2.71e-12 2.9e-12 3.09e-12 3.29e-12 3.48e-12 3.68e-12 3.89e-12 4.09e-12 4.31e-12 
07 04 04  03 02 01 6.7e-13 6.9e-13 7e-13 7.3e-13 7.6e-13 7.9e-13 8.1e-13 8.3e-13 8.6e-13 8.8e-13 9e-13 9.4e-13 9.8e-13 1.03e-12 1.07e-12 1.11e-12 1.16e-12 1.2e-12 1.24e-12 1.28e-12 1.32e-12 
07 04 04  04 02 03 1.86e-12 1.89e-12 1.92e-12 1.97e-12 2.04e-12 2.13e-12 2.22e-12 2.33e-12 2.43e-12 2.54e-12 2.65e-12 2.85e-12 3.05e-12 3.24e-12 3.42e-12 3.59e-12 3.75e-12 3.9e-12 4.05e-12 4.19e-12 4.32e-12 
07 04 04  04 02 02 4.9e-13 5.2e-13 5.4e-13 5.7e-13 5.9e-13 6.2e-13 6.5e-13 6.7e-13 7e-13 7.2e-13 7.5e-13 8.1e-13 8.6e-13 9.1e-13 9.7e-13 1.02e-12 1.07e-12 1.12e-12 1.17e-12 1.23e-12 1.28e-12 
07 04 04  05 02 04 2.23e-12 2.29e-12 2.33e-12 2.43e-12 2.55e-12 2.69e-12 2.86e-12 3.03e-12 3.21e-12 3.4e-12 3.59e-12 3.95e-12 4.3e-12 4.64e-12 4.95e-12 5.25e-12 5.54e-12 5.81e-12 6.07e-12 6.32e-12 6.56e-12 
07 04 04  05 02 03 9.5e-13 1e-12 1.03e-12 1.09e-12 1.14e-12 1.19e-12 1.24e-12 1.29e-12 1.33e-12 1.37e-12 1.42e-12 1.5e-12 1.58e-12 1.66e-12 1.74e-12 1.82e-12 1.91e-12 2e-12 2.08e-12 2.18e-12 2.27e-12 
07 04 04  06 02 05 1.45e-12 1.36e-12 1.31e-12 1.28e-12 1.28e-12 1.32e-12 1.38e-12 1.45e-12 1.53e-12 1.62e-12 1.71e-12 1.91e-12 2.13e-12 2.34e-12 2.56e-12 2.77e-12 2.99e-12 3.21e-12 3.42e-12 3.63e-12 3.84e-12 
07 04 04  06 02 04 2.47e-12 2.56e-12 2.68e-12 2.95e-12 3.25e-12 3.54e-12 3.82e-12 4.09e-12 4.35e-12 4.6e-12 4.84e-12 5.28e-12 5.7e-12 6.09e-12 6.46e-12 6.82e-12 7.15e-12 7.47e-12 7.78e-12 8.07e-12 8.35e-12 
07 04 04  07 02 06 1.41e-12 1.37e-12 1.38e-12 1.44e-12 1.54e-12 1.65e-12 1.77e-12 1.9e-12 2.02e-12 2.15e-12 2.27e-12 2.51e-12 2.75e-12 2.99e-12 3.22e-12 3.46e-12 3.69e-12 3.93e-12 4.17e-12 4.41e-12 4.65e-12 
07 04 04  07 02 05 2.8e-12 2.9e-12 3e-12 3.2e-12 3.41e-12 3.62e-12 3.82e-12 4.03e-12 4.23e-12 4.42e-12 4.61e-12 4.99e-12 5.35e-12 5.7e-12 6.04e-12 6.37e-12 6.69e-12 6.99e-12 7.29e-12 7.58e-12 7.87e-12 
07 04 04  08 02 07 1.2e-12 1.22e-12 1.29e-12 1.48e-12 1.7e-12 1.92e-12 2.13e-12 2.33e-12 2.52e-12 2.7e-12 2.87e-12 3.19e-12 3.49e-12 3.77e-12 4.04e-12 4.31e-12 4.56e-12 4.81e-12 5.05e-12 5.28e-12 5.52e-12 
07 04 04  08 02 06 1.96e-12 1.89e-12 1.89e-12 2.03e-12 2.23e-12 2.48e-12 2.73e-12 2.98e-12 3.23e-12 3.48e-12 3.71e-12 4.16e-12 4.57e-12 4.96e-12 5.33e-12 5.69e-12 6.03e-12 6.36e-12 6.68e-12 6.99e-12 7.29e-12 
07 04 04  09 02 08 1.35e-12 1.36e-12 1.41e-12 1.6e-12 1.83e-12 2.06e-12 2.3e-12 2.52e-12 2.72e-12 2.92e-12 3.1e-12 3.44e-12 3.75e-12 4.04e-12 4.31e-12 4.58e-12 4.84e-12 5.1e-12 5.36e-12 5.62e-12 5.88e-12 
07 04 04  09 02 07 2.11e-12 2.07e-12 2.11e-12 2.3e-12 2.54e-12 2.8e-12 3.06e-12 3.32e-12 3.58e-12 3.83e-12 4.07e-12 4.53e-12 4.96e-12 5.37e-12 5.76e-12 6.14e-12 6.5e-12 6.84e-12 7.18e-12 7.51e-12 7.83e-12 
07 04 04  10 02 09 3.05e-12 3.1e-12 3.19e-12 3.42e-12 3.65e-12 3.87e-12 4.08e-12 4.28e-12 4.47e-12 4.65e-12 4.83e-12 5.16e-12 5.46e-12 5.75e-12 6.01e-12 6.26e-12 6.49e-12 6.71e-12 6.92e-12 7.12e-12 7.31e-12 
07 04 04  10 02 08 2.53e-12 2.5e-12 2.54e-12 2.67e-12 2.85e-12 3.05e-12 3.25e-12 3.45e-12 3.65e-12 3.85e-12 4.04e-12 4.4e-12 4.75e-12 5.07e-12 5.38e-12 5.68e-12 5.97e-12 6.26e-12 6.54e-12 6.82e-12 7.1e-12 
07 04 04  11 02 10 1.25e-12 1.35e-12 1.45e-12 1.66e-12 1.85e-12 2.04e-12 2.23e-12 2.41e-12 2.58e-12 2.75e-12 2.92e-12 3.25e-12 3.57e-12 3.87e-12 4.16e-12 4.44e-12 4.71e-12 4.96e-12 5.21e-12 5.46e-12 5.69e-12 
07 04 04  11 02 09 2.51e-12 2.8e-12 3.07e-12 3.57e-12 4.01e-12 4.39e-12 4.71e-12 5e-12 5.26e-12 5.5e-12 5.71e-12 6.11e-12 6.47e-12 6.81e-12 7.12e-12 7.41e-12 7.69e-12 7.96e-12 8.21e-12 8.46e-12 8.69e-12 
07 04 04  04 04 01 8.88e-12 9.26e-12 9.53e-12 9.93e-12 1.02e-11 1.05e-11 1.08e-11 1.1e-11 1.13e-11 1.15e-11 1.18e-11 1.23e-11 1.28e-11 1.34e-11 1.38e-11 1.43e-11 1.47e-11 1.51e-11 1.54e-11 1.57e-11 1.6e-11 
07 04 04  04 04 00 3.72e-12 3.83e-12 3.9e-12 4.02e-12 4.13e-12 4.25e-12 4.37e-12 4.49e-12 4.6e-12 4.72e-12 4.83e-12 5.06e-12 5.29e-12 5.53e-12 5.78e-12 6.04e-12 6.32e-12 6.6e-12 6.89e-12 7.19e-12 7.49e-12 
07 04 04  05 04 02 5.94e-12 5.96e-12 5.94e-12 5.97e-12 6.12e-12 6.35e-12 6.64e-12 6.98e-12 7.34e-12 7.71e-12 8.09e-12 8.83e-12 9.54e-12 1.02e-11 1.08e-11 1.14e-11 1.19e-11 1.24e-11 1.29e-11 1.33e-11 1.36e-11 
07 04 04  05 04 01 8e-12 8.36e-12 8.66e-12 9.24e-12 9.8e-12 1.03e-11 1.08e-11 1.13e-11 1.17e-11 1.21e-11 1.24e-11 1.31e-11 1.37e-11 1.42e-11 1.47e-11 1.51e-11 1.56e-11 1.6e-11 1.64e-11 1.67e-11 1.71e-11 
07 04 04  06 04 03 3.95e-11 4.14e-11 4.26e-11 4.43e-11 4.52e-11 4.58e-11 4.62e-11 4.65e-11 4.67e-11 4.69e-11 4.7e-11 4.73e-11 4.76e-11 4.79e-11 4.81e-11 4.84e-11 4.86e-11 4.89e-11 4.91e-11 4.93e-11 4.95e-11 
07 04 04  06 04 02 5.83e-12 6.12e-12 6.53e-12 7.53e-12 8.62e-12 9.75e-12 1.09e-11 1.2e-11 1.3e-11 1.4e-11 1.49e-11 1.66e-11 1.81e-11 1.94e-11 2.05e-11 2.15e-11 2.25e-11 2.33e-11 2.41e-11 2.48e-11 2.54e-11 
07 04 04  07 04 04 0 0 0 0 0 0 0 0 0 0 0 0 0 0 0 0 0 0 0 0 0 
07 04 04  07 04 03 4.27e-11 4.4e-11 4.47e-11 4.54e-11 4.55e-11 4.55e-11 4.54e-11 4.53e-11 4.52e-11 4.51e-11 4.5e-11 4.48e-11 4.48e-11 4.48e-11 4.49e-11 4.5e-11 4.52e-11 4.54e-11 4.56e-11 4.58e-11 4.6e-11 
07 04 03  00 00 00 3e-13 3.1e-13 3.1e-13 3.2e-13 3.2e-13 3.3e-13 3.4e-13 3.5e-13 3.7e-13 3.9e-13 4.1e-13 4.4e-13 4.9e-13 5.2e-13 5.7e-13 6e-13 6.4e-13 6.8e-13 7.1e-13 7.4e-13 7.8e-13 
07 04 03  01 00 01 4.5e-13 4.6e-13 4.6e-13 4.7e-13 4.8e-13 4.9e-13 5.2e-13 5.4e-13 5.6e-13 5.9e-13 6.2e-13 6.8e-13 7.4e-13 8e-13 8.6e-13 9.2e-13 9.8e-13 1.03e-12 1.09e-12 1.14e-12 1.19e-12 
07 04 03  02 00 02 3.6e-13 3.7e-13 3.8e-13 4e-13 4.3e-13 4.5e-13 4.8e-13 5.1e-13 5.4e-13 5.7e-13 6e-13 6.6e-13 7.2e-13 7.9e-13 8.7e-13 9.4e-13 1.02e-12 1.09e-12 1.17e-12 1.25e-12 1.32e-12 
07 04 03  03 00 03 3e-13 3.1e-13 3.2e-13 3.4e-13 3.7e-13 3.9e-13 4.1e-13 4.4e-13 4.7e-13 4.9e-13 5.2e-13 5.8e-13 6.3e-13 6.9e-13 7.5e-13 8.1e-13 8.7e-13 9.3e-13 9.9e-13 1.05e-12 1.11e-12 
07 04 03  04 00 04 8.9e-13 9.2e-13 9.5e-13 1e-12 1.05e-12 1.1e-12 1.16e-12 1.23e-12 1.3e-12 1.37e-12 1.44e-12 1.6e-12 1.75e-12 1.91e-12 2.07e-12 2.22e-12 2.37e-12 2.52e-12 2.67e-12 2.81e-12 2.95e-12 
07 04 03  05 00 05 1.3e-12 1.34e-12 1.36e-12 1.41e-12 1.46e-12 1.53e-12 1.6e-12 1.68e-12 1.77e-12 1.86e-12 1.94e-12 2.12e-12 2.29e-12 2.46e-12 2.62e-12 2.78e-12 2.93e-12 3.08e-12 3.22e-12 3.37e-12 3.51e-12 
07 04 03  06 00 06 1.42e-12 1.41e-12 1.4e-12 1.41e-12 1.45e-12 1.49e-12 1.55e-12 1.6e-12 1.66e-12 1.72e-12 1.78e-12 1.89e-12 1.99e-12 2.09e-12 2.19e-12 2.28e-12 2.37e-12 2.46e-12 2.54e-12 2.62e-12 2.7e-12 
07 04 03  07 00 07 8.9e-13 8.8e-13 8.8e-13 9e-13 9.4e-13 9.8e-13 1.03e-12 1.09e-12 1.14e-12 1.2e-12 1.25e-12 1.36e-12 1.46e-12 1.56e-12 1.66e-12 1.75e-12 1.84e-12 1.92e-12 2e-12 2.08e-12 2.16e-12 
07 04 03  08 00 08 1.06e-12 1.08e-12 1.1e-12 1.17e-12 1.24e-12 1.32e-12 1.4e-12 1.49e-12 1.58e-12 1.67e-12 1.76e-12 1.93e-12 2.1e-12 2.25e-12 2.4e-12 2.53e-12 2.66e-12 2.78e-12 2.88e-12 2.98e-12 3.08e-12 
07 04 03  09 00 09 1.4e-12 1.44e-12 1.49e-12 1.6e-12 1.74e-12 1.88e-12 2.02e-12 2.16e-12 2.29e-12 2.42e-12 2.55e-12 2.79e-12 3e-12 3.21e-12 3.39e-12 3.57e-12 3.74e-12 3.9e-12 4.05e-12 4.2e-12 4.35e-12 
07 04 03  10 00 10 1.51e-12 1.52e-12 1.57e-12 1.73e-12 1.92e-12 2.11e-12 2.3e-12 2.47e-12 2.64e-12 2.8e-12 2.95e-12 3.23e-12 3.5e-12 3.75e-12 4.01e-12 4.25e-12 4.5e-12 4.75e-12 5e-12 5.25e-12 5.5e-12 
07 04 03  11 00 11 1.5e-12 1.59e-12 1.71e-12 1.96e-12 2.21e-12 2.45e-12 2.67e-12 2.88e-12 3.08e-12 3.26e-12 3.45e-12 3.79e-12 4.12e-12 4.44e-12 4.75e-12 5.06e-12 5.36e-12 5.67e-12 5.97e-12 6.28e-12 6.58e-12 
07 04 03  12 00 12 1.65e-12 1.72e-12 1.82e-12 2.02e-12 2.22e-12 2.42e-12 2.61e-12 2.8e-12 2.99e-12 3.18e-12 3.37e-12 3.74e-12 4.1e-12 4.45e-12 4.78e-12 5.1e-12 5.41e-12 5.71e-12 5.99e-12 6.27e-12 6.53e-12 
07 04 03  02 02 01 4.5e-13 4.7e-13 4.9e-13 5.3e-13 5.6e-13 5.9e-13 6.1e-13 6.4e-13 6.6e-13 6.9e-13 7.1e-13 7.7e-13 8.2e-13 8.8e-13 9.4e-13 1e-12 1.06e-12 1.13e-12 1.19e-12 1.25e-12 1.32e-12 
07 04 03  02 02 00 6.3e-13 6.5e-13 6.7e-13 7e-13 7.3e-13 7.6e-13 7.8e-13 8.1e-13 8.3e-13 8.6e-13 8.9e-13 9.5e-13 1.01e-12 1.08e-12 1.15e-12 1.21e-12 1.28e-12 1.34e-12 1.4e-12 1.45e-12 1.51e-12 
07 04 03  03 02 02 1.14e-12 1.14e-12 1.13e-12 1.12e-12 1.12e-12 1.12e-12 1.13e-12 1.15e-12 1.17e-12 1.19e-12 1.21e-12 1.27e-12 1.33e-12 1.38e-12 1.44e-12 1.5e-12 1.55e-12 1.61e-12 1.65e-12 1.7e-12 1.75e-12 
07 04 03  03 02 01 2.28e-12 2.34e-12 2.38e-12 2.45e-12 2.52e-12 2.6e-12 2.68e-12 2.77e-12 2.87e-12 2.96e-12 3.06e-12 3.26e-12 3.45e-12 3.64e-12 3.83e-12 4.02e-12 4.21e-12 4.4e-12 4.59e-12 4.78e-12 4.97e-12 
07 04 03  04 02 03 1.31e-12 1.36e-12 1.4e-12 1.48e-12 1.55e-12 1.62e-12 1.68e-12 1.73e-12 1.77e-12 1.81e-12 1.85e-12 1.91e-12 1.96e-12 2.01e-12 2.04e-12 2.07e-12 2.1e-12 2.12e-12 2.14e-12 2.16e-12 2.17e-12 
07 04 03  04 02 02 2.86e-12 2.95e-12 3.01e-12 3.14e-12 3.26e-12 3.37e-12 3.48e-12 3.58e-12 3.67e-12 3.76e-12 3.85e-12 4.02e-12 4.18e-12 4.34e-12 4.49e-12 4.64e-12 4.78e-12 4.91e-12 5.04e-12 5.17e-12 5.29e-12 
07 04 03  05 02 04 7.1e-13 7.3e-13 7.6e-13 8.2e-13 8.8e-13 9.5e-13 1.02e-12 1.08e-12 1.15e-12 1.21e-12 1.28e-12 1.4e-12 1.52e-12 1.63e-12 1.74e-12 1.85e-12 1.96e-12 2.07e-12 2.18e-12 2.29e-12 2.39e-12 
07 04 03  05 02 03 2.37e-12 2.5e-12 2.62e-12 2.88e-12 3.15e-12 3.41e-12 3.67e-12 3.91e-12 4.15e-12 4.37e-12 4.59e-12 5e-12 5.39e-12 5.77e-12 6.12e-12 6.46e-12 6.79e-12 7.11e-12 7.42e-12 7.71e-12 8e-12 
07 04 03  06 02 05 1.59e-12 1.57e-12 1.59e-12 1.69e-12 1.85e-12 2.04e-12 2.26e-12 2.48e-12 2.7e-12 2.93e-12 3.15e-12 3.57e-12 3.98e-12 4.37e-12 4.74e-12 5.11e-12 5.46e-12 5.81e-12 6.15e-12 6.48e-12 6.82e-12 
07 04 03  06 02 04 1.41e-12 1.37e-12 1.36e-12 1.39e-12 1.47e-12 1.57e-12 1.68e-12 1.8e-12 1.93e-12 2.05e-12 2.17e-12 2.41e-12 2.63e-12 2.84e-12 3.03e-12 3.21e-12 3.38e-12 3.54e-12 3.69e-12 3.84e-12 3.98e-12 
07 04 03  07 02 06 1.61e-12 1.58e-12 1.58e-12 1.64e-12 1.73e-12 1.84e-12 1.97e-12 2.1e-12 2.24e-12 2.38e-12 2.52e-12 2.79e-12 3.05e-12 3.31e-12 3.55e-12 3.78e-12 4.01e-12 4.22e-12 4.43e-12 4.63e-12 4.82e-12 
07 04 03  07 02 05 1.18e-12 1.21e-12 1.25e-12 1.36e-12 1.49e-12 1.64e-12 1.79e-12 1.95e-12 2.11e-12 2.26e-12 2.42e-12 2.71e-12 2.98e-12 3.24e-12 3.48e-12 3.71e-12 3.94e-12 4.15e-12 4.37e-12 4.58e-12 4.79e-12 
07 04 03  08 02 07 1.32e-12 1.33e-12 1.39e-12 1.54e-12 1.73e-12 1.92e-12 2.1e-12 2.27e-12 2.44e-12 2.59e-12 2.74e-12 3.03e-12 3.3e-12 3.55e-12 3.78e-12 4.01e-12 4.23e-12 4.43e-12 4.63e-12 4.82e-12 5e-12 
07 04 03  08 02 06 2.43e-12 2.43e-12 2.5e-12 2.72e-12 2.97e-12 3.22e-12 3.46e-12 3.69e-12 3.91e-12 4.13e-12 4.33e-12 4.74e-12 5.13e-12 5.51e-12 5.88e-12 6.25e-12 6.62e-12 6.99e-12 7.36e-12 7.73e-12 8.1e-12 
07 04 03  09 02 08 1.9e-12 1.91e-12 1.96e-12 2.13e-12 2.32e-12 2.51e-12 2.7e-12 2.89e-12 3.06e-12 3.23e-12 3.4e-12 3.72e-12 4.02e-12 4.32e-12 4.61e-12 4.9e-12 5.18e-12 5.46e-12 5.74e-12 6.02e-12 6.3e-12 
07 04 03  09 02 07 2.62e-12 2.63e-12 2.73e-12 3.06e-12 3.45e-12 3.83e-12 4.2e-12 4.54e-12 4.85e-12 5.13e-12 5.4e-12 5.88e-12 6.32e-12 6.72e-12 7.09e-12 7.44e-12 7.78e-12 8.1e-12 8.42e-12 8.73e-12 9.04e-12 
07 04 03  10 02 09 1.58e-12 1.54e-12 1.56e-12 1.68e-12 1.84e-12 2.01e-12 2.18e-12 2.36e-12 2.54e-12 2.71e-12 2.87e-12 3.18e-12 3.46e-12 3.73e-12 3.97e-12 4.2e-12 4.42e-12 4.63e-12 4.83e-12 5.03e-12 5.22e-12 
07 04 03  10 02 08 3.36e-12 3.45e-12 3.62e-12 4.05e-12 4.48e-12 4.89e-12 5.26e-12 5.6e-12 5.92e-12 6.22e-12 6.5e-12 7.03e-12 7.52e-12 7.98e-12 8.42e-12 8.85e-12 9.27e-12 9.68e-12 1.01e-11 1.05e-11 1.09e-11 
07 04 03  11 02 10 1.96e-12 2.18e-12 2.38e-12 2.73e-12 3.01e-12 3.25e-12 3.46e-12 3.65e-12 3.83e-12 4e-12 4.16e-12 4.47e-12 4.76e-12 5.04e-12 5.31e-12 5.57e-12 5.82e-12 6.07e-12 6.3e-12 6.53e-12 6.76e-12 
07 04 03  11 02 09 1.44e-12 1.55e-12 1.67e-12 1.92e-12 2.19e-12 2.46e-12 2.74e-12 3.02e-12 3.3e-12 3.57e-12 3.83e-12 4.34e-12 4.81e-12 5.26e-12 5.68e-12 6.08e-12 6.46e-12 6.84e-12 7.2e-12 7.56e-12 7.92e-12 
07 04 03  04 04 01 3.83e-12 3.95e-12 4.04e-12 4.22e-12 4.39e-12 4.56e-12 4.73e-12 4.89e-12 5.05e-12 5.21e-12 5.36e-12 5.67e-12 5.99e-12 6.31e-12 6.63e-12 6.97e-12 7.32e-12 7.67e-12 8.03e-12 8.4e-12 8.77e-12 
07 04 03  04 04 00 8.81e-12 9.22e-12 9.55e-12 1.01e-11 1.04e-11 1.08e-11 1.1e-11 1.13e-11 1.16e-11 1.19e-11 1.21e-11 1.26e-11 1.31e-11 1.35e-11 1.4e-11 1.43e-11 1.47e-11 1.5e-11 1.53e-11 1.56e-11 1.58e-11 
07 04 03  05 04 02 7.27e-12 7.61e-12 7.92e-12 8.51e-12 9.08e-12 9.61e-12 1.01e-11 1.06e-11 1.1e-11 1.14e-11 1.18e-11 1.25e-11 1.31e-11 1.37e-11 1.42e-11 1.48e-11 1.53e-11 1.57e-11 1.62e-11 1.66e-11 1.7e-11 
07 04 03  05 04 01 5.47e-12 5.48e-12 5.47e-12 5.49e-12 5.62e-12 5.83e-12 6.11e-12 6.42e-12 6.75e-12 7.1e-12 7.46e-12 8.16e-12 8.84e-12 9.49e-12 1.01e-11 1.07e-11 1.12e-11 1.17e-11 1.21e-11 1.25e-11 1.29e-11 
07 04 03  06 04 03 5.91e-12 6.18e-12 6.57e-12 7.51e-12 8.55e-12 9.63e-12 1.07e-11 1.18e-11 1.28e-11 1.37e-11 1.46e-11 1.63e-11 1.77e-11 1.89e-11 2e-11 2.1e-11 2.19e-11 2.27e-11 2.34e-11 2.41e-11 2.46e-11 
07 04 03  06 04 02 3.92e-11 4.11e-11 4.24e-11 4.41e-11 4.51e-11 4.57e-11 4.61e-11 4.63e-11 4.66e-11 4.67e-11 4.69e-11 4.72e-11 4.75e-11 4.77e-11 4.8e-11 4.83e-11 4.85e-11 4.88e-11 4.9e-11 4.93e-11 4.95e-11 
07 04 03  07 04 04 4.27e-11 4.4e-11 4.47e-11 4.54e-11 4.55e-11 4.55e-11 4.54e-11 4.53e-11 4.52e-11 4.51e-11 4.5e-11 4.48e-11 4.48e-11 4.48e-11 4.49e-11 4.5e-11 4.52e-11 4.54e-11 4.56e-11 4.58e-11 4.6e-11 
07 04 03  07 04 03 0 0 0 0 0 0 0 0 0 0 0 0 0 0 0 0 0 0 0 0 0 
