 5
   10.   20.   40.   80.  200.
  1  0 3.7E-11 4.3E-11 4.2E-11 4.9E-11 4.9E-11
  2  0 1.3E-11 1.3E-11 1.3E-11 1.5E-11 1.5E-11
  2  1 6.9E-11 7.0E-11 7.5E-11 8.6E-11 8.6E-11
  3  0 7.0E-12 7.0E-12 6.9E-12 9.0E-12 9.0E-12
  3  1 3.0E-11 2.6E-11 3.2E-11 3.4E-11 3.4E-11
  3  2 7.6E-11 8.5E-11 8.6E-11 9.4E-11 9.4E-11
  4  0 5.5E-12 5.3E-12 5.4E-12 6.3E-12 6.3E-12
  4  1 1.9E-11 1.8E-11 2.0E-11 2.3E-11 2.3E-11
  4  2 3.4E-11 3.4E-11 4.1E-11 4.4E-11 4.4E-11
  4  3 7.3E-11 8.6E-11 9.1E-11 1.0E-10 1.0E-10
  5  0 3.1E-12 4.1E-12 4.1E-12 3.3E-12 3.3E-12
  5  1 1.3E-11 1.4E-11 1.5E-11 1.6E-11 1.6E-11
  5  2 2.3E-11 2.3E-11 2.5E-11 3.0E-11 3.0E-11
  5  3 3.8E-11 4.0E-11 4.2E-11 5.1E-11 5.1E-11
  5  4 7.5E-11 9.6E-11 9.4E-11 1.0E-10 1.0E-10
  6  0 2.3E-12 2.5E-12 3.2E-12 3.6E-12 3.6E-12
  6  1 7.2E-12 1.0E-11 1.1E-11 1.3E-11 1.3E-11
  6  2 1.3E-11 1.7E-11 2.0E-11 2.2E-11 2.2E-11
  6  3 2.5E-11 2.8E-11 2.9E-11 3.0E-11 3.0E-11
  6  4 3.9E-11 3.9E-11 4.5E-11 5.2E-11 5.2E-11
  6  5 7.1E-11 8.6E-11 9.2E-11 1.0E-10 1.0E-10
  7  0 1.4E-12 2.4E-12 3.3E-12 3.6E-12 3.6E-12
  7  1 4.6E-12 6.6E-12 7.9E-12 9.3E-12 9.3E-12
  7  2 9.8E-12 1.3E-11 1.6E-11 1.5E-11 1.5E-11
  7  3 1.9E-11 1.8E-11 2.1E-11 1.9E-11 1.9E-11
  7  4 2.3E-11 2.7E-11 3.3E-11 3.6E-11 3.6E-11
  7  5 4.4E-11 4.1E-11 4.4E-11 5.4E-11 5.4E-11
  7  6 7.7E-11 8.4E-11 9.1E-11 1.1E-10 1.1E-10
  8  0 4.7E-13 1.3E-12 1.6E-12 2.1E-12 2.1E-12
  8  1 2.2E-12 4.3E-12 6.9E-12 7.0E-12 7.0E-12
  8  2 6.2E-12 8.3E-12 9.4E-12 1.4E-11 1.4E-11
  8  3 1.0E-11 1.3E-11 1.6E-11 2.1E-11 2.1E-11
  8  4 1.7E-11 2.1E-11 2.4E-11 2.5E-11 2.5E-11
  8  5 2.4E-11 2.9E-11 3.3E-11 3.4E-11 3.4E-11
  8  6 4.1E-11 3.8E-11 4.7E-11 5.0E-11 5.0E-11
  8  7 7.9E-11 8.2E-11 9.6E-11 1.4E-10 1.4E-10
  9  0 2.3E-13 9.4E-13 1.4E-12 1.8E-12 1.8E-12
  9  1 1.2E-12 2.4E-12 4.5E-12 5.3E-12 5.3E-12
  9  2 4.1E-12 6.3E-12 9.3E-12 1.0E-11 1.0E-11
  9  3 7.1E-12 1.1E-11 1.2E-11 1.5E-11 1.5E-11
  9  4 1.6E-11 1.6E-11 1.6E-11 2.2E-11 2.2E-11
  9  5 1.7E-11 1.9E-11 2.1E-11 2.9E-11 2.9E-11
  9  6 2.8E-11 3.3E-11 3.0E-11 4.2E-11 4.2E-11
  9  7 4.2E-11 3.7E-11 3.8E-11 4.5E-11 4.5E-11
  9  8 7.4E-11 8.8E-11 8.4E-11 1.1E-10 1.1E-10
 10  0 2.1E-13 2.7E-13 1.0E-12 1.0E-12 1.0E-12
 10  1 7.5E-13 1.6E-12 3.1E-12 3.8E-12 3.8E-12
 10  2 1.3E-12 3.3E-12 5.7E-12 7.4E-12 7.4E-12
 10  3 3.9E-12 5.3E-12 9.9E-12 1.2E-11 1.2E-11
 10  4 7.7E-12 1.1E-11 1.3E-11 1.6E-11 1.6E-11
 10  5 1.3E-11 1.6E-11 1.9E-11 2.5E-11 2.5E-11
 10  6 1.9E-11 2.0E-11 2.3E-11 2.8E-11 2.8E-11
 10  7 2.7E-11 3.0E-11 3.2E-11 3.8E-11 3.8E-11
 10  8 4.0E-11 4.5E-11 4.6E-11 5.3E-11 5.3E-11
 10  9 7.0E-11 7.7E-11 8.7E-11 1.1E-10 1.1E-10
 11  0 1.0E-16 1.8E-13 7.0E-13 1.0E-12 1.0E-12
 11  1 3.8E-13 8.6E-13 2.3E-12 2.5E-12 2.5E-12
 11  2 1.0E-12 2.2E-12 3.8E-12 6.2E-12 6.2E-12
 11  3 1.7E-12 4.2E-12 7.1E-12 8.2E-12 8.2E-12
 11  4 4.5E-12 5.3E-12 1.1E-11 1.2E-11 1.2E-11
 11  5 8.9E-12 1.1E-11 1.4E-11 1.7E-11 1.7E-11
 11  6 1.5E-11 1.6E-11 2.0E-11 2.2E-11 2.2E-11
 11  7 3.0E-11 2.1E-11 2.2E-11 2.5E-11 2.5E-11
 11  8 3.1E-11 2.9E-11 3.1E-11 3.5E-11 3.5E-11
 11  9 4.7E-11 4.0E-11 3.9E-11 4.6E-11 4.6E-11
 11 10 6.3E-11 7.6E-11 8.3E-11 1.0E-10 1.0E-10
 12  0 1.0E-16 1.5E-13 3.6E-13 8.6E-13 8.6E-13
 12  1 2.0E-13 2.0E-13 1.6E-12 2.8E-12 2.8E-12
 12  2 2.0E-13 1.0E-12 2.7E-12 4.4E-12 4.4E-12
 12  3 1.4E-12 1.6E-11 5.2E-12 7.1E-12 7.1E-12
 12  4 3.1E-12 4.2E-12 7.2E-12 1.1E-11 1.1E-11
 12  5 6.1E-12 7.5E-12 1.0E-11 1.3E-11 1.3E-11
 12  6 9.0E-12 1.2E-11 1.5E-11 1.8E-11 1.8E-11
 12  7 1.5E-11 1.5E-11 2.0E-11 2.2E-11 2.2E-11
 12  8 1.9E-11 2.2E-11 2.3E-11 3.2E-11 3.2E-11
 12  9 2.8E-11 2.9E-11 3.7E-11 3.7E-11 3.7E-11
 12 10 4.7E-11 4.2E-11 4.6E-11 5.3E-11 5.3E-11
 12 11 6.1E-11 7.6E-11 9.0E-11 1.1E-10 1.1E-10
 13  0 1.0E-16 1.0E-16 2.4E-13 6.8E-13 6.8E-13
 13  1 1.0E-16 4.0E-13 8.0E-13 1.3E-12 1.3E-12
 13  2 1.0E-16 3.8E-13 2.1E-12 3.4E-12 3.4E-12
 13  3 9.6E-13 9.9E-13 3.1E-12 5.2E-12 5.2E-12
 13  4 3.4E-12 1.8E-12 5.2E-12 8.1E-12 8.1E-12
 13  5 2.3E-12 3.2E-12 8.8E-12 1.2E-11 1.2E-11
 13  6 6.1E-12 7.1E-12 1.1E-11 1.5E-11 1.5E-11
 13  7 2.0E-11 1.3E-11 1.4E-11 1.6E-11 1.6E-11
 13  8 1.0E-11 1.9E-11 2.3E-11 2.4E-11 2.4E-11
 13  9 4.0E-11 2.4E-11 2.3E-11 2.6E-11 2.6E-11
 13 10 3.1E-11 2.9E-11 3.3E-11 3.4E-11 3.4E-11
 13 11 5.4E-11 4.2E-11 4.0E-11 4.7E-11 4.7E-11
 13 12 6.5E-11 7.4E-11 8.1E-11 1.0E-10 1.0E-10
 14  0 1.0E-16 1.0E-16 1.8E-13 5.6E-13 5.6E-13
 14  1 1.0E-16 1.0E-16 4.5E-13 1.3E-12 1.3E-12
 14  2 1.0E-16 4.8E-13 1.0E-12 2.6E-12 2.6E-12
 14  3 1.0E-16 2.1E-13 2.1E-12 4.2E-12 4.2E-12
 14  4 1.5E-12 1.5E-12 3.6E-12 5.5E-12 5.5E-12
 14  5 1.9E-12 2.7E-12 5.3E-12 8.4E-12 8.4E-12
 14  6 5.6E-12 2.8E-12 8.1E-12 1.4E-11 1.4E-11
 14  7 1.6E-11 1.3E-11 1.4E-11 1.6E-11 1.6E-11
 14  8 7.2E-12 1.3E-11 1.5E-11 2.5E-11 2.5E-11
 14  9 3.3E-11 2.3E-11 2.1E-11 2.0E-11 2.0E-11
 14 10 2.2E-11 2.3E-11 2.7E-11 3.2E-11 3.2E-11
 14 11 4.7E-11 3.3E-11 3.0E-11 3.4E-11 3.4E-11
 14 12 4.4E-11 3.9E-11 4.2E-11 5.1E-11 5.1E-11
 14 13 9.1E-11 9.1E-11 8.6E-11 9.8E-11 9.8E-11
 15  0 1.0E-16 1.0E-16 1.2E-13 4.7E-13 4.7E-13
 15  1 1.0E-16 1.0E-16 3.8E-13 9.6E-13 9.6E-13
 15  2 1.0E-16 3.0E-13 1.0E-12 2.7E-12 2.7E-12
 15  3 3.0E-13 7.4E-13 1.5E-12 2.2E-12 2.2E-12
 15  4 3.0E-13 1.0E-12 2.3E-12 2.7E-12 2.7E-12
 15  5 1.0E-12 2.4E-12 3.7E-12 6.4E-12 6.4E-12
 15  6 1.5E-12 4.6E-12 5.1E-12 9.0E-12 9.0E-12
 15  7 5.8E-12 5.4E-12 1.0E-11 1.4E-11 1.4E-11
 15  8 8.2E-12 9.3E-12 1.1E-11 1.3E-11 1.3E-11
 15  9 1.1E-11 1.1E-11 1.6E-11 1.7E-11 1.7E-11
 15 10 1.8E-11 2.1E-11 2.3E-11 2.6E-11 2.6E-11
 15 11 2.5E-11 2.4E-11 3.5E-11 2.7E-11 2.7E-11
 15 12 3.7E-11 3.0E-11 3.1E-11 3.9E-11 3.9E-11
 15 13 4.3E-11 4.1E-11 4.8E-11 5.1E-11 5.1E-11
 15 14 6.1E-11 7.7E-11 8.1E-11 1.1E-10 1.1E-10
 16  0 1.0E-16 1.0E-16 1.0E-16 2.2E-13 2.2E-13
 16  1 1.0E-16 1.0E-16 3.6E-13 8.0E-13 8.0E-13
 16  2 1.0E-16 1.0E-16 3.2E-13 1.8E-12 1.8E-12
 16  3 1.0E-16 1.0E-16 7.9E-13 3.0E-12 3.0E-12
 16  4 1.0E-16 8.5E-13 1.8E-12 3.7E-12 3.7E-12
 16  5 1.0E-16 1.9E-12 2.2E-12 4.6E-12 4.6E-12
 16  6 3.6E-12 9.7E-13 4.3E-12 6.3E-12 6.3E-12
 16  7 4.5E-12 6.1E-12 7.0E-12 8.8E-12 8.8E-12
 16  8 4.1E-12 5.0E-12 7.7E-12 1.4E-11 1.4E-11
 16  9 2.9E-11 1.7E-11 1.6E-11 1.7E-11 1.7E-11
 16 10 1.3E-11 1.9E-11 1.7E-11 2.0E-11 2.0E-11
 16 11 5.0E-11 2.8E-11 2.3E-11 2.0E-11 2.0E-11
 16 12 2.2E-11 2.7E-11 2.7E-11 3.2E-11 3.2E-11
 16 13 5.8E-11 3.7E-11 3.2E-11 3.5E-11 3.5E-11
 16 14 6.6E-11 4.6E-11 4.2E-11 4.8E-11 4.8E-11
 16 15 6.1E-11 7.2E-11 8.4E-11 1.1E-10 1.1E-10
 17  0 1.0E-16 1.0E-16 1.0E-16 1.9E-13 1.9E-13
 17  1 1.0E-16 1.0E-16 1.4E-13 4.9E-13 4.9E-13
 17  2 1.0E-16 1.0E-16 2.9E-13 1.7E-12 1.7E-12
 17  3 1.0E-16 1.2E-13 1.0E-12 1.5E-12 1.5E-12
 17  4 1.0E-16 1.2E-13 1.5E-12 2.7E-12 2.7E-12
 17  5 1.0E-16 6.4E-13 1.3E-12 3.4E-12 3.4E-12
 17  6 1.0E-16 6.6E-13 3.0E-12 4.7E-12 4.7E-12
 17  7 5.7E-12 2.3E-12 5.0E-12 5.9E-12 5.9E-12
 17  8 6.7E-12 5.6E-12 6.4E-12 1.0E-11 1.0E-11
 17  9 1.6E-11 1.0E-11 9.3E-12 1.1E-11 1.1E-11
 17 10 1.3E-11 1.0E-11 1.6E-11 1.3E-11 1.3E-11
 17 11 5.5E-11 2.0E-11 1.7E-11 1.8E-11 1.8E-11
 17 12 1.9E-11 2.5E-11 2.1E-11 2.3E-11 2.3E-11
 17 13 7.6E-11 3.2E-11 2.7E-11 2.8E-11 2.8E-11
 17 14 6.5E-11 3.8E-11 3.3E-11 3.6E-11 3.6E-11
 17 15 3.7E-11 4.5E-11 4.6E-11 4.5E-11 4.5E-11
 17 16 9.9E-11 9.5E-11 8.8E-11 1.0E-10 1.0E-10
 18  0 1.0E-16 1.0E-16 1.0E-16 1.8E-13 1.8E-13
 18  1 1.0E-16 1.0E-16 1.3E-13 2.7E-13 2.7E-13
 18  2 1.0E-16 1.1E-12 1.0E-16 5.7E-13 5.7E-13
 18  3 1.0E-16 1.0E-16 2.3E-13 8.8E-13 8.8E-13
 18  4 1.0E-16 1.6E-13 7.1E-13 2.0E-12 2.0E-12
 18  5 1.0E-16 1.6E-13 6.5E-13 2.4E-12 2.4E-12
 18  6 1.0E-16 1.9E-12 1.3E-12 4.1E-12 4.1E-12
 18  7 1.0E-16 1.5E-12 3.6E-12 5.5E-12 5.5E-12
 18  8 9.0E-12 2.6E-12 5.0E-12 6.8E-12 6.8E-12
 18  9 1.0E-11 8.9E-12 8.4E-12 9.7E-12 9.7E-12
 18 10 2.3E-11 1.1E-11 1.0E-11 1.4E-11 1.4E-11
 18 11 5.5E-11 2.3E-11 1.9E-11 1.8E-11 1.8E-11
 18 12 3.9E-12 2.2E-11 2.3E-11 2.4E-11 2.4E-11
 18 13 7.6E-11 3.4E-11 2.5E-11 2.1E-11 2.1E-11
 18 14 9.0E-11 3.5E-11 2.8E-11 2.9E-11 2.9E-11
 18 15 2.7E-11 3.8E-11 3.1E-11 3.7E-11 3.7E-11
 18 16 7.6E-11 4.9E-11 4.3E-11 4.9E-11 4.9E-11
 18 17 1.0E-10 9.7E-11 8.9E-11 1.0E-10 1.0E-10
 19  0 1.0E-16 1.0E-16 1.0E-16 1.7E-13 1.7E-13
 19  1 1.0E-16 1.0E-16 1.0E-16 2.8E-13 2.8E-13
 19  2 1.0E-16 1.0E-16 2.0E-13 8.9E-13 8.9E-13
 19  3 1.0E-16 1.0E-16 1.3E-13 1.6E-12 1.6E-12
 19  4 1.0E-16 1.0E-16 3.3E-13 1.8E-12 1.8E-12
 19  5 1.0E-16 2.2E-13 9.5E-13 3.4E-12 3.4E-12
 19  6 1.0E-16 2.1E-13 8.4E-13 3.9E-12 3.9E-12
 19  7 1.0E-16 1.5E-12 2.0E-12 4.4E-12 4.4E-12
 19  8 1.0E-16 2.0E-12 4.0E-12 4.4E-12 4.4E-12
 19  9 1.4E-11 3.6E-12 6.1E-12 6.5E-12 6.5E-12
 19 10 1.5E-11 8.2E-12 8.9E-12 9.6E-12 9.6E-12
 19 11 3.3E-11 1.4E-11 1.1E-11 1.2E-11 1.2E-11
 19 12 8.5E-12 1.4E-11 1.9E-11 1.7E-11 1.7E-11
 19 13 9.3E-11 2.5E-11 1.9E-11 1.9E-11 1.9E-11
 19 14 9.5E-11 3.8E-11 2.6E-11 2.2E-11 2.2E-11
 19 15 2.7E-11 3.1E-11 3.1E-11 3.4E-11 3.4E-11
 19 16 8.3E-11 4.2E-11 3.4E-11 3.7E-11 3.7E-11
 19 17 8.2E-11 5.1E-11 4.4E-11 4.9E-11 4.9E-11
 19 18 1.1E-10 9.8E-11 8.9E-11 1.0E-10 1.0E-10
 20  0 1.0E-16 1.0E-16 1.0E-16 1.0E-16 1.0E-16
 20  1 1.0E-16 1.0E-16 1.0E-16 1.1E-13 1.1E-13
 20  2 1.0E-16 1.0E-16 2.3E-13 3.8E-13 3.8E-13
 20  3 1.0E-16 1.0E-16 1.8E-13 1.3E-12 1.3E-12
 20  4 1.0E-16 1.0E-16 1.9E-13 1.6E-12 1.6E-12
 20  5 1.0E-16 1.0E-16 4.5E-13 2.1E-12 2.1E-12
 20  6 1.0E-16 3.1E-13 2.0E-12 3.0E-12 3.0E-12
 20  7 1.0E-16 2.9E-13 1.5E-12 3.7E-12 3.7E-12
 20  8 1.0E-16 1.9E-12 2.5E-12 4.1E-12 4.1E-12
 20  9 1.0E-16 2.5E-12 4.6E-12 6.2E-12 6.2E-12
 20 10 2.2E-11 3.0E-12 6.1E-12 9.5E-12 9.5E-12
 20 11 2.3E-11 1.3E-11 1.0E-11 1.1E-11 1.1E-11
 20 12 4.7E-11 7.6E-12 1.1E-11 1.4E-11 1.4E-11
 20 13 1.0E-10 3.0E-11 2.1E-11 1.9E-11 1.9E-11
 20 14 1.2E-10 2.9E-11 2.1E-11 2.0E-11 2.0E-11
 20 15 1.5E-11 1.8E-11 2.1E-11 1.9E-11 1.9E-11
 20 16 1.3E-10 4.0E-11 2.9E-11 3.0E-11 3.0E-11
 20 17 9.3E-11 4.5E-11 3.5E-11 3.7E-11 3.7E-11
 20 18 8.8E-11 5.2E-11 4.5E-11 4.9E-11 4.9E-11
 20 19 1.1E-10 9.9E-11 9.0E-11 1.0E-10 1.0E-10
 21 20 1.0E-10 1.0E-10 1.0E-10 1.0E-10 1.0E-10
 22 21 1.0E-10 1.0E-10 1.0E-10 1.0E-10 1.0E-10
 23 22 1.0E-10 1.0E-10 1.0E-10 1.0E-10 1.0E-10
 24 23 1.0E-10 1.0E-10 1.0E-10 1.0E-10 1.0E-10
 25 24 1.0E-10 1.0E-10 1.0E-10 1.0E-10 1.0E-10
 26 25 1.0E-10 1.0E-10 1.0E-10 1.0E-10 1.0E-10
 27 26 1.0E-10 1.0E-10 1.0E-10 1.0E-10 1.0E-10
 28 27 1.0E-10 1.0E-10 1.0E-10 1.0E-10 1.0E-10
 29 28 1.0E-10 1.0E-10 1.0E-10 1.0E-10 1.0E-10
 30 29 1.0E-10 1.0E-10 1.0E-10 1.0E-10 1.0E-10
 31 30 1.0E-10 1.0E-10 1.0E-10 1.0E-10 1.0E-10
 32 31 1.0E-10 1.0E-10 1.0E-10 1.0E-10 1.0E-10
 33 32 1.0E-10 1.0E-10 1.0E-10 1.0E-10 1.0E-10
 34 33 1.0E-10 1.0E-10 1.0E-10 1.0E-10 1.0E-10
 35 34 1.0E-10 1.0E-10 1.0E-10 1.0E-10 1.0E-10
 36 35 1.0E-10 1.0E-10 1.0E-10 1.0E-10 1.0E-10
 37 36 1.0E-10 1.0E-10 1.0E-10 1.0E-10 1.0E-10
 38 37 1.0E-10 1.0E-10 1.0E-10 1.0E-10 1.0E-10
 39 38 1.0E-10 1.0E-10 1.0E-10 1.0E-10 1.0E-10
 40 39 1.0E-10 1.0E-10 1.0E-10 1.0E-10 1.0E-10
 41 40 1.0E-10 1.0E-10 1.0E-10 1.0E-10 1.0E-10
 42 41 1.0E-10 1.0E-10 1.0E-10 1.0E-10 1.0E-10
 43 42 1.0E-10 1.0E-10 1.0E-10 1.0E-10 1.0E-10
 44 43 1.0E-10 1.0E-10 1.0E-10 1.0E-10 1.0E-10
 45 44 1.0E-10 1.0E-10 1.0E-10 1.0E-10 1.0E-10
 46 45 1.0E-10 1.0E-10 1.0E-10 1.0E-10 1.0E-10
 47 46 1.0E-10 1.0E-10 1.0E-10 1.0E-10 1.0E-10
 48 47 1.0E-10 1.0E-10 1.0E-10 1.0E-10 1.0E-10
 49 48 1.0E-10 1.0E-10 1.0E-10 1.0E-10 1.0E-10
 50 49 1.0E-10 1.0E-10 1.0E-10 1.0E-10 1.0E-10
 51 50 1.0E-10 1.0E-10 1.0E-10 1.0E-10 1.0E-10
 52 51 1.0E-10 1.0E-10 1.0E-10 1.0E-10 1.0E-10
 53 52 1.0E-10 1.0E-10 1.0E-10 1.0E-10 1.0E-10
 54 53 1.0E-10 1.0E-10 1.0E-10 1.0E-10 1.0E-10
 55 54 1.0E-10 1.0E-10 1.0E-10 1.0E-10 1.0E-10
 56 55 1.0E-10 1.0E-10 1.0E-10 1.0E-10 1.0E-10
 57 56 1.0E-10 1.0E-10 1.0E-10 1.0E-10 1.0E-10
 58 57 1.0E-10 1.0E-10 1.0E-10 1.0E-10 1.0E-10
 59 58 1.0E-10 1.0E-10 1.0E-10 1.0E-10 1.0E-10
 60 59 1.0E-10 1.0E-10 1.0E-10 1.0E-10 1.0E-10
 21 19 9.0E-11 5.0E-11 5.0E-11 5.0E-11 5.0E-11
 22 20 9.0E-11 5.0E-11 5.0E-11 5.0E-11 5.0E-11
 23 21 9.0E-11 5.0E-11 5.0E-11 5.0E-11 5.0E-11
 24 22 9.0E-11 5.0E-11 5.0E-11 5.0E-11 5.0E-11
 25 23 9.0E-11 5.0E-11 5.0E-11 5.0E-11 5.0E-11
 26 24 9.0E-11 5.0E-11 5.0E-11 5.0E-11 5.0E-11
 27 25 9.0E-11 5.0E-11 5.0E-11 5.0E-11 5.0E-11
 28 26 9.0E-11 5.0E-11 5.0E-11 5.0E-11 5.0E-11
 29 27 9.0E-11 5.0E-11 5.0E-11 5.0E-11 5.0E-11
 30 28 9.0E-11 5.0E-11 5.0E-11 5.0E-11 5.0E-11
 31 29 9.0E-11 5.0E-11 5.0E-11 5.0E-11 5.0E-11
 32 30 9.0E-11 5.0E-11 5.0E-11 5.0E-11 5.0E-11
 33 31 9.0E-11 5.0E-11 5.0E-11 5.0E-11 5.0E-11
 34 32 9.0E-11 5.0E-11 5.0E-11 5.0E-11 5.0E-11
 35 33 9.0E-11 5.0E-11 5.0E-11 5.0E-11 5.0E-11
 36 34 9.0E-11 5.0E-11 5.0E-11 5.0E-11 5.0E-11
 37 35 9.0E-11 5.0E-11 5.0E-11 5.0E-11 5.0E-11
 38 36 9.0E-11 5.0E-11 5.0E-11 5.0E-11 5.0E-11
 39 37 9.0E-11 5.0E-11 5.0E-11 5.0E-11 5.0E-11
 40 38 9.0E-11 5.0E-11 5.0E-11 5.0E-11 5.0E-11
 41 39 9.0E-11 5.0E-11 5.0E-11 5.0E-11 5.0E-11
 42 40 9.0E-11 5.0E-11 5.0E-11 5.0E-11 5.0E-11
 43 41 9.0E-11 5.0E-11 5.0E-11 5.0E-11 5.0E-11
 44 42 9.0E-11 5.0E-11 5.0E-11 5.0E-11 5.0E-11
 45 43 9.0E-11 5.0E-11 5.0E-11 5.0E-11 5.0E-11
 46 44 9.0E-11 5.0E-11 5.0E-11 5.0E-11 5.0E-11
 47 45 9.0E-11 5.0E-11 5.0E-11 5.0E-11 5.0E-11
 48 46 9.0E-11 5.0E-11 5.0E-11 5.0E-11 5.0E-11
 49 47 9.0E-11 5.0E-11 5.0E-11 5.0E-11 5.0E-11
 50 48 9.0E-11 5.0E-11 5.0E-11 5.0E-11 5.0E-11
 51 49 9.0E-11 5.0E-11 5.0E-11 5.0E-11 5.0E-11
 52 50 9.0E-11 5.0E-11 5.0E-11 5.0E-11 5.0E-11
 53 51 9.0E-11 5.0E-11 5.0E-11 5.0E-11 5.0E-11
 54 52 9.0E-11 5.0E-11 5.0E-11 5.0E-11 5.0E-11
 55 53 9.0E-11 5.0E-11 5.0E-11 5.0E-11 5.0E-11
 56 54 9.0E-11 5.0E-11 5.0E-11 5.0E-11 5.0E-11
 57 55 9.0E-11 5.0E-11 5.0E-11 5.0E-11 5.0E-11
 58 56 9.0E-11 5.0E-11 5.0E-11 5.0E-11 5.0E-11
 59 57 9.0E-11 5.0E-11 5.0E-11 5.0E-11 5.0E-11
 60 58 9.0E-11 5.0E-11 5.0E-11 5.0E-11 5.0E-11
 21 18 9.1E-11 4.5E-11 3.5E-11 3.5E-11 3.5E-11
 22 19 9.1E-11 4.5E-11 3.5E-11 3.5E-11 3.5E-11
 23 20 9.1E-11 4.5E-11 3.5E-11 3.5E-11 3.5E-11
 24 21 9.1E-11 4.5E-11 3.5E-11 3.5E-11 3.5E-11
 25 22 9.1E-11 4.5E-11 3.5E-11 3.5E-11 3.5E-11
 26 23 9.1E-11 4.5E-11 3.5E-11 3.5E-11 3.5E-11
 27 24 9.1E-11 4.5E-11 3.5E-11 3.5E-11 3.5E-11
 28 25 9.1E-11 4.5E-11 3.5E-11 3.5E-11 3.5E-11
 29 26 9.1E-11 4.5E-11 3.5E-11 3.5E-11 3.5E-11
 30 27 9.1E-11 4.5E-11 3.5E-11 3.5E-11 3.5E-11
 31 28 9.1E-11 4.5E-11 3.5E-11 3.5E-11 3.5E-11
 32 29 9.1E-11 4.5E-11 3.5E-11 3.5E-11 3.5E-11
 33 30 9.1E-11 4.5E-11 3.5E-11 3.5E-11 3.5E-11
 34 31 9.1E-11 4.5E-11 3.5E-11 3.5E-11 3.5E-11
 35 32 9.1E-11 4.5E-11 3.5E-11 3.5E-11 3.5E-11
 36 33 9.1E-11 4.5E-11 3.5E-11 3.5E-11 3.5E-11
 37 34 9.1E-11 4.5E-11 3.5E-11 3.5E-11 3.5E-11
 38 35 9.1E-11 4.5E-11 3.5E-11 3.5E-11 3.5E-11
 39 36 9.1E-11 4.5E-11 3.5E-11 3.5E-11 3.5E-11
 40 37 9.1E-11 4.5E-11 3.5E-11 3.5E-11 3.5E-11
 41 38 9.1E-11 4.5E-11 3.5E-11 3.5E-11 3.5E-11
 42 39 9.1E-11 4.5E-11 3.5E-11 3.5E-11 3.5E-11
 43 40 9.1E-11 4.5E-11 3.5E-11 3.5E-11 3.5E-11
 44 41 9.1E-11 4.5E-11 3.5E-11 3.5E-11 3.5E-11
 45 42 9.1E-11 4.5E-11 3.5E-11 3.5E-11 3.5E-11
 46 43 9.1E-11 4.5E-11 3.5E-11 3.5E-11 3.5E-11
 47 44 9.1E-11 4.5E-11 3.5E-11 3.5E-11 3.5E-11
 48 45 9.1E-11 4.5E-11 3.5E-11 3.5E-11 3.5E-11
 49 46 9.1E-11 4.5E-11 3.5E-11 3.5E-11 3.5E-11
 50 47 9.1E-11 4.5E-11 3.5E-11 3.5E-11 3.5E-11
 51 48 9.1E-11 4.5E-11 3.5E-11 3.5E-11 3.5E-11
 52 49 9.1E-11 4.5E-11 3.5E-11 3.5E-11 3.5E-11
 53 50 9.1E-11 4.5E-11 3.5E-11 3.5E-11 3.5E-11
 54 51 9.1E-11 4.5E-11 3.5E-11 3.5E-11 3.5E-11
 55 52 9.1E-11 4.5E-11 3.5E-11 3.5E-11 3.5E-11
 56 53 9.1E-11 4.5E-11 3.5E-11 3.5E-11 3.5E-11
 57 54 9.1E-11 4.5E-11 3.5E-11 3.5E-11 3.5E-11
 58 55 9.1E-11 4.5E-11 3.5E-11 3.5E-11 3.5E-11
 59 56 9.1E-11 4.5E-11 3.5E-11 3.5E-11 3.5E-11
 60 57 9.1E-11 4.5E-11 3.5E-11 3.5E-11 3.5E-11
 21 17 1.3E-11 4.0E-11 3.0E-11 3.0E-11 3.0E-11
 22 18 1.3E-11 4.0E-11 3.0E-11 3.0E-11 3.0E-11
 23 19 1.3E-11 4.0E-11 3.0E-11 3.0E-11 3.0E-11
 24 20 1.3E-11 4.0E-11 3.0E-11 3.0E-11 3.0E-11
 25 21 1.3E-11 4.0E-11 3.0E-11 3.0E-11 3.0E-11
 26 22 1.3E-11 4.0E-11 3.0E-11 3.0E-11 3.0E-11
 27 23 1.3E-11 4.0E-11 3.0E-11 3.0E-11 3.0E-11
 28 24 1.3E-11 4.0E-11 3.0E-11 3.0E-11 3.0E-11
 29 25 1.3E-11 4.0E-11 3.0E-11 3.0E-11 3.0E-11
 30 26 1.3E-11 4.0E-11 3.0E-11 3.0E-11 3.0E-11
 31 27 1.3E-11 4.0E-11 3.0E-11 3.0E-11 3.0E-11
 32 28 1.3E-11 4.0E-11 3.0E-11 3.0E-11 3.0E-11
 33 29 1.3E-11 4.0E-11 3.0E-11 3.0E-11 3.0E-11
 34 30 1.3E-11 4.0E-11 3.0E-11 3.0E-11 3.0E-11
 35 31 1.3E-11 4.0E-11 3.0E-11 3.0E-11 3.0E-11
 36 32 1.3E-11 4.0E-11 3.0E-11 3.0E-11 3.0E-11
 37 33 1.3E-11 4.0E-11 3.0E-11 3.0E-11 3.0E-11
 38 34 1.3E-11 4.0E-11 3.0E-11 3.0E-11 3.0E-11
 39 35 1.3E-11 4.0E-11 3.0E-11 3.0E-11 3.0E-11
 40 36 1.3E-11 4.0E-11 3.0E-11 3.0E-11 3.0E-11
 41 37 1.3E-11 4.0E-11 3.0E-11 3.0E-11 3.0E-11
 42 38 1.3E-11 4.0E-11 3.0E-11 3.0E-11 3.0E-11
 43 39 1.3E-11 4.0E-11 3.0E-11 3.0E-11 3.0E-11
 44 40 1.3E-11 4.0E-11 3.0E-11 3.0E-11 3.0E-11
 45 41 1.3E-11 4.0E-11 3.0E-11 3.0E-11 3.0E-11
 46 42 1.3E-11 4.0E-11 3.0E-11 3.0E-11 3.0E-11
 47 43 1.3E-11 4.0E-11 3.0E-11 3.0E-11 3.0E-11
 48 44 1.3E-11 4.0E-11 3.0E-11 3.0E-11 3.0E-11
 49 45 1.3E-11 4.0E-11 3.0E-11 3.0E-11 3.0E-11
 50 46 1.3E-11 4.0E-11 3.0E-11 3.0E-11 3.0E-11
 51 47 1.3E-11 4.0E-11 3.0E-11 3.0E-11 3.0E-11
 52 48 1.3E-11 4.0E-11 3.0E-11 3.0E-11 3.0E-11
 53 49 1.3E-11 4.0E-11 3.0E-11 3.0E-11 3.0E-11
 54 50 1.3E-11 4.0E-11 3.0E-11 3.0E-11 3.0E-11
 55 51 1.3E-11 4.0E-11 3.0E-11 3.0E-11 3.0E-11
 56 52 1.3E-11 4.0E-11 3.0E-11 3.0E-11 3.0E-11
 57 53 1.3E-11 4.0E-11 3.0E-11 3.0E-11 3.0E-11
 58 54 1.3E-11 4.0E-11 3.0E-11 3.0E-11 3.0E-11
 59 55 1.3E-11 4.0E-11 3.0E-11 3.0E-11 3.0E-11
 60 56 1.3E-11 4.0E-11 3.0E-11 3.0E-11 3.0E-11
 21 16 1.5E-11 1.8E-11 2.1E-11 1.9E-11 1.9E-11
 22 17 1.5E-11 1.8E-11 2.1E-11 1.9E-11 1.9E-11
 23 18 1.5E-11 1.8E-11 2.1E-11 1.9E-11 1.9E-11
 24 19 1.5E-11 1.8E-11 2.1E-11 1.9E-11 1.9E-11
 25 20 1.5E-11 1.8E-11 2.1E-11 1.9E-11 1.9E-11
 26 21 1.5E-11 1.8E-11 2.1E-11 1.9E-11 1.9E-11
 27 22 1.5E-11 1.8E-11 2.1E-11 1.9E-11 1.9E-11
 28 23 1.5E-11 1.8E-11 2.1E-11 1.9E-11 1.9E-11
 29 24 1.5E-11 1.8E-11 2.1E-11 1.9E-11 1.9E-11
 30 25 1.5E-11 1.8E-11 2.1E-11 1.9E-11 1.9E-11
 31 26 1.5E-11 1.8E-11 2.1E-11 1.9E-11 1.9E-11
 32 27 1.5E-11 1.8E-11 2.1E-11 1.9E-11 1.9E-11
 33 28 1.5E-11 1.8E-11 2.1E-11 1.9E-11 1.9E-11
 34 29 1.5E-11 1.8E-11 2.1E-11 1.9E-11 1.9E-11
 35 30 1.5E-11 1.8E-11 2.1E-11 1.9E-11 1.9E-11
 36 31 1.5E-11 1.8E-11 2.1E-11 1.9E-11 1.9E-11
 37 32 1.5E-11 1.8E-11 2.1E-11 1.9E-11 1.9E-11
 38 33 1.5E-11 1.8E-11 2.1E-11 1.9E-11 1.9E-11
 39 34 1.5E-11 1.8E-11 2.1E-11 1.9E-11 1.9E-11
 40 35 1.5E-11 1.8E-11 2.1E-11 1.9E-11 1.9E-11
 41 36 1.5E-11 1.8E-11 2.1E-11 1.9E-11 1.9E-11
 42 37 1.5E-11 1.8E-11 2.1E-11 1.9E-11 1.9E-11
 43 38 1.5E-11 1.8E-11 2.1E-11 1.9E-11 1.9E-11
 44 39 1.5E-11 1.8E-11 2.1E-11 1.9E-11 1.9E-11
 45 40 1.5E-11 1.8E-11 2.1E-11 1.9E-11 1.9E-11
 46 41 1.5E-11 1.8E-11 2.1E-11 1.9E-11 1.9E-11
 47 42 1.5E-11 1.8E-11 2.1E-11 1.9E-11 1.9E-11
 48 43 1.5E-11 1.8E-11 2.1E-11 1.9E-11 1.9E-11
 49 44 1.5E-11 1.8E-11 2.1E-11 1.9E-11 1.9E-11
 50 45 1.5E-11 1.8E-11 2.1E-11 1.9E-11 1.9E-11
 51 46 1.5E-11 1.8E-11 2.1E-11 1.9E-11 1.9E-11
 52 47 1.5E-11 1.8E-11 2.1E-11 1.9E-11 1.9E-11
 53 48 1.5E-11 1.8E-11 2.1E-11 1.9E-11 1.9E-11
 54 49 1.5E-11 1.8E-11 2.1E-11 1.9E-11 1.9E-11
 55 50 1.5E-11 1.8E-11 2.1E-11 1.9E-11 1.9E-11
 56 51 1.5E-11 1.8E-11 2.1E-11 1.9E-11 1.9E-11
 57 52 1.5E-11 1.8E-11 2.1E-11 1.9E-11 1.9E-11
 58 53 1.5E-11 1.8E-11 2.1E-11 1.9E-11 1.9E-11
 59 54 1.5E-11 1.8E-11 2.1E-11 1.9E-11 1.9E-11
 60 55 1.5E-11 1.8E-11 2.1E-11 1.9E-11 1.9E-11
 21 15 1.2E-11 2.9E-11 2.0E-11 2.0E-11 2.0E-11
 22 16 1.2E-11 2.9E-11 2.0E-11 2.0E-11 2.0E-11
 23 17 1.2E-11 2.9E-11 2.0E-11 2.0E-11 2.0E-11
 24 18 1.2E-11 2.9E-11 2.0E-11 2.0E-11 2.0E-11
 25 19 1.2E-11 2.9E-11 2.0E-11 2.0E-11 2.0E-11
 26 20 1.2E-11 2.9E-11 2.0E-11 2.0E-11 2.0E-11
 27 21 1.2E-11 2.9E-11 2.0E-11 2.0E-11 2.0E-11
 28 22 1.2E-11 2.9E-11 2.0E-11 2.0E-11 2.0E-11
 29 23 1.2E-11 2.9E-11 2.0E-11 2.0E-11 2.0E-11
 30 24 1.2E-11 2.9E-11 2.0E-11 2.0E-11 2.0E-11
 31 25 1.2E-11 2.9E-11 2.0E-11 2.0E-11 2.0E-11
 32 26 1.2E-11 2.9E-11 2.0E-11 2.0E-11 2.0E-11
 33 27 1.2E-11 2.9E-11 2.0E-11 2.0E-11 2.0E-11
 34 28 1.2E-11 2.9E-11 2.0E-11 2.0E-11 2.0E-11
 35 29 1.2E-11 2.9E-11 2.0E-11 2.0E-11 2.0E-11
 36 30 1.2E-11 2.9E-11 2.0E-11 2.0E-11 2.0E-11
 37 31 1.2E-11 2.9E-11 2.0E-11 2.0E-11 2.0E-11
 38 32 1.2E-11 2.9E-11 2.0E-11 2.0E-11 2.0E-11
 39 33 1.2E-11 2.9E-11 2.0E-11 2.0E-11 2.0E-11
 40 34 1.2E-11 2.9E-11 2.0E-11 2.0E-11 2.0E-11
 41 35 1.2E-11 2.9E-11 2.0E-11 2.0E-11 2.0E-11
 42 36 1.2E-11 2.9E-11 2.0E-11 2.0E-11 2.0E-11
 43 37 1.2E-11 2.9E-11 2.0E-11 2.0E-11 2.0E-11
 44 38 1.2E-11 2.9E-11 2.0E-11 2.0E-11 2.0E-11
 45 39 1.2E-11 2.9E-11 2.0E-11 2.0E-11 2.0E-11
 46 40 1.2E-11 2.9E-11 2.0E-11 2.0E-11 2.0E-11
 47 41 1.2E-11 2.9E-11 2.0E-11 2.0E-11 2.0E-11
 48 42 1.2E-11 2.9E-11 2.0E-11 2.0E-11 2.0E-11
 49 43 1.2E-11 2.9E-11 2.0E-11 2.0E-11 2.0E-11
 50 44 1.2E-11 2.9E-11 2.0E-11 2.0E-11 2.0E-11
 51 45 1.2E-11 2.9E-11 2.0E-11 2.0E-11 2.0E-11
 52 46 1.2E-11 2.9E-11 2.0E-11 2.0E-11 2.0E-11
 53 47 1.2E-11 2.9E-11 2.0E-11 2.0E-11 2.0E-11
 54 48 1.2E-11 2.9E-11 2.0E-11 2.0E-11 2.0E-11
 55 49 1.2E-11 2.9E-11 2.0E-11 2.0E-11 2.0E-11
 56 50 1.2E-11 2.9E-11 2.0E-11 2.0E-11 2.0E-11
 57 51 1.2E-11 2.9E-11 2.0E-11 2.0E-11 2.0E-11
 58 52 1.2E-11 2.9E-11 2.0E-11 2.0E-11 2.0E-11
 59 53 1.2E-11 2.9E-11 2.0E-11 2.0E-11 2.0E-11
 60 54 1.2E-11 2.9E-11 2.0E-11 2.0E-11 2.0E-11
