7
  5. 10. 20. 30. 40. 60. 100.
 1  0 .9200E-11 .8000E-11 .6700E-11 .6100E-11 .5800E-11 .5500E-11 .5300E-11
 2  0 .2110E-10 .2410E-10 .2660E-10 .2760E-10 .2830E-10 .2910E-10 .2960E-10
 3  0 .9000E-12 .1200E-11 .1500E-11 .1600E-11 .1800E-11 .1900E-11 .2200E-11
 4  0 .4100E-11 .4500E-11 .5100E-11 .5500E-11 .5900E-11 .6600E-11 .7700E-11
 5  0 .3000E-12 .5000E-12 .6000E-12 .8000E-12 .9000E-12 .1000E-11 .1200E-11
 6  0 .1500E-11 .1500E-11 .1700E-11 .2000E-11 .2200E-11 .2600E-11 .3100E-11
 7  0 .3000E-12 .3000E-12 .4000E-12 .4000E-12 .6000E-12 .9000E-12 .1500E-11
 2  1 .1140E-10 .1200E-10 .1130E-10 .1070E-10 .1040E-10 .1020E-10 .1030E-10
 3  1 .4310E-10 .4670E-10 .4970E-10 .5050E-10 .5100E-10 .5180E-10 .5240E-10
 4  1 .2200E-11 .2500E-11 .3200E-11 .3600E-11 .3900E-11 .4400E-11 .4800E-11
 5  1 .6600E-11 .9000E-11 .1070E-10 .1160E-10 .1240E-10 .1380E-10 .1630E-10
 6  1 .1200E-11 .1200E-11 .1500E-11 .1800E-11 .2100E-11 .2700E-11 .3800E-11
 7  1 .2900E-11 .3400E-11 .4000E-11 .4500E-11 .5000E-11 .6000E-11 .7400E-11
 3  2 .1070E-10 .1130E-10 .1150E-10 .1150E-10 .1160E-10 .1180E-10 .1220E-10
 4  2 .4770E-10 .5210E-10 .5550E-10 .5690E-10 .5780E-10 .5980E-10 .6270E-10
 5  2 .1900E-11 .2900E-11 .3900E-11 .4500E-11 .4900E-11 .5600E-11 .6300E-11
 6  2 .1580E-10 .1520E-10 .1610E-10 .1690E-10 .1770E-10 .1910E-10 .2120E-10
 7  2 .1600E-11 .1900E-11 .2400E-11 .2900E-11 .3600E-11 .5200E-11 .8200E-11
 4  3 .1360E-10 .1210E-10 .1190E-10 .1210E-10 .1230E-10 .1260E-10 .1280E-10
 5  3 .4130E-10 .5530E-10 .6180E-10 .6350E-10 .6450E-10 .6630E-10 .6920E-10
 6  3 .3000E-11 .3800E-11 .4900E-11 .5600E-11 .6300E-11 .7800E-11 .1030E-10
 7  3 .1680E-10 .1920E-10 .2080E-10 .2140E-10 .2210E-10 .2360E-10 .2550E-10
 5  4 .9400E-11 .1240E-10 .1380E-10 .1400E-10 .1410E-10 .1450E-10 .1560E-10
 6  4 .8250E-11 .7760E-10 .7630E-10 .7580E-10 .7550E-10 .7580E-10 .7630E-10
 7  4 .3100E-11 .4700E-11 .6500E-11 .7700E-11 .9100E-11 .1200E-10 .1680E-10
 6  5 .1210E-10 .1300E-10 .1380E-10 .1410E-10 .1470E-10 .1660E-10 .2070E-10
 7  5 .6520E-10 .7690E-10 .8200E-10 .8160E-10 .8110E-10 .8090E-10 .8010E-10
 7  6 .8000E-11 .1220E-10 .1510E-10 .1630E-10 .1770E-10 .2080E-10 .2610E-10
