8
15. 25. 50. 75. 100. 150. 200. 300.
   1   1   0     1   1   1     8.6e-11   8.3e-11   7.9e-11   7.9e-11   8.0e-11   8.3e-11   8.7e-11   9.5e-11
   1   1   0     2   1   1     1.4e-12   6.6e-12   2.1e-11   3.2e-11   4.1e-11   5.4e-11   6.4e-11   7.8e-11
   1   1   0     2   1   0     6.7e-13   3.2e-12   9.8e-12   1.3e-11   1.5e-11   1.6e-11   1.7e-11   1.8e-11
   1   1   0     2   2   1     3.4e-13   7.8e-13   1.3e-12   1.2e-12   1.1e-12   8.6e-13   6.8e-13   4.8e-13
   1   1   0     2   2   0     3.2e-12   8.9e-12   2.0e-11   2.6e-11   3.1e-11   3.7e-11   4.2e-11   4.8e-11
   1   1   0     3   1   0     1.2e-15   4.8e-14   7.1e-13   1.7e-12   2.7e-12   4.3e-12   5.6e-12   7.7e-12
   1   1   0     3   1   1     1.3e-15   5.6e-14   8.8e-13   2.2e-12   3.5e-12   5.6e-12   7.1e-12   9.2e-12
   1   1   0     3   2   0     3.8e-15   1.1e-13   1.3e-12   3.0e-12   4.7e-12   7.4e-12   9.5e-12   1.3e-11
   1   1   0     3   2   1     2.0e-15   5.7e-14   7.5e-13   1.9e-12   3.3e-12   6.5e-12   9.9e-12   1.7e-11
   1   1   0     4   1   1     2.4e-19   2.4e-16   4.2e-14   2.4e-13   5.9e-13   1.5e-12   2.4e-12   4.0e-12
   1   1   0     4   1   0     2.6e-20   2.6e-17   4.8e-15   3.0e-14   8.0e-14   2.4e-13   4.7e-13   1.1e-12
   1   1   0     4   2   1     6.4e-19   3.9e-16   5.2e-14   2.9e-13   7.2e-13   2.0e-12   3.7e-12   7.5e-12
   1   1   0     4   2   0     3.0e-19   1.8e-16   2.3e-14   1.2e-13   2.8e-13   6.9e-13   1.2e-12   2.1e-12
   1   1   0     4   4   1     3.2e-17   3.5e-15   1.2e-13   4.1e-13   8.0e-13   1.8e-12   2.8e-12   5.2e-12
   1   1   0     4   4   0     3.8e-16   4.5e-14   1.6e-12   5.4e-12   1.0e-11   1.9e-11   2.7e-11   3.9e-11
   1   1   0     5   1   0     1.3e-24   5.7e-20   1.9e-16   3.1e-15   1.4e-14   6.8e-14   1.7e-13   4.7e-13
   1   1   0     5   1   1     6.5e-25   2.8e-20   9.2e-17   1.6e-15   7.4e-15   4.4e-14   1.3e-13   5.1e-13
   1   1   0     5   2   0     2.9e-24   8.3e-20   2.0e-16   3.0e-15   1.3e-14   6.3e-14   1.6e-13   4.8e-13
   1   1   0     5   2   1     8.8e-24   2.5e-19   6.2e-16   9.2e-15   3.8e-14   1.8e-13   4.4e-13   1.2e-12
   1   1   0     5   4   0     2.6e-22   1.3e-18   7.2e-16   6.3e-15   2.0e-14   7.5e-14   1.7e-13   4.6e-13
   1   1   0     5   4   1     7.3e-21   3.9e-17   2.6e-14   2.4e-13   7.9e-13   2.9e-12   6.1e-12   1.4e-11
   1   1   0     5   5   0     4.2e-20   6.5e-17   1.7e-14   1.2e-13   3.3e-13   1.0e-12   2.0e-12   4.4e-12
   1   1   0     5   5   1     1.8e-21   2.2e-18   4.3e-16   2.5e-15   6.5e-15   1.9e-14   3.6e-14   8.6e-14
   1   1   1     1   1   0     8.6e-11   8.3e-11   7.9e-11   7.9e-11   8.0e-11   8.3e-11   8.7e-11   9.5e-11
   1   1   1     2   1   1     6.7e-13   3.2e-12   9.8e-12   1.3e-11   1.5e-11   1.6e-11   1.7e-11   1.8e-11
   1   1   1     2   1   0     1.4e-12   6.6e-12   2.1e-11   3.2e-11   4.1e-11   5.4e-11   6.4e-11   7.8e-11
   1   1   1     2   2   1     3.2e-12   8.9e-12   2.0e-11   2.6e-11   3.1e-11   3.7e-11   4.2e-11   4.8e-11
   1   1   1     2   2   0     3.4e-13   7.8e-13   1.3e-12   1.2e-12   1.1e-12   8.6e-13   6.8e-13   4.8e-13
   1   1   1     3   1   0     1.3e-15   5.6e-14   8.8e-13   2.2e-12   3.5e-12   5.6e-12   7.1e-12   9.2e-12
   1   1   1     3   1   1     1.2e-15   4.8e-14   7.1e-13   1.7e-12   2.7e-12   4.3e-12   5.6e-12   7.7e-12
   1   1   1     3   2   0     2.0e-15   5.7e-14   7.5e-13   1.9e-12   3.3e-12   6.5e-12   9.9e-12   1.7e-11
   1   1   1     3   2   1     3.8e-15   1.1e-13   1.3e-12   3.0e-12   4.7e-12   7.4e-12   9.5e-12   1.3e-11
   1   1   1     4   1   1     2.6e-20   2.6e-17   4.8e-15   3.0e-14   8.0e-14   2.4e-13   4.7e-13   1.1e-12
   1   1   1     4   1   0     2.4e-19   2.4e-16   4.2e-14   2.4e-13   5.9e-13   1.5e-12   2.4e-12   4.0e-12
   1   1   1     4   2   1     3.0e-19   1.8e-16   2.3e-14   1.2e-13   2.8e-13   6.9e-13   1.2e-12   2.1e-12
   1   1   1     4   2   0     6.4e-19   3.9e-16   5.2e-14   2.9e-13   7.2e-13   2.0e-12   3.7e-12   7.5e-12
   1   1   1     4   4   1     3.8e-16   4.5e-14   1.6e-12   5.4e-12   1.0e-11   1.9e-11   2.7e-11   3.9e-11
   1   1   1     4   4   0     3.2e-17   3.5e-15   1.2e-13   4.1e-13   8.0e-13   1.8e-12   2.8e-12   5.2e-12
   1   1   1     5   1   0     6.5e-25   2.8e-20   9.2e-17   1.6e-15   7.4e-15   4.4e-14   1.3e-13   5.1e-13
   1   1   1     5   1   1     1.3e-24   5.7e-20   1.9e-16   3.1e-15   1.4e-14   6.8e-14   1.7e-13   4.7e-13
   1   1   1     5   2   0     8.8e-24   2.5e-19   6.2e-16   9.2e-15   3.8e-14   1.8e-13   4.4e-13   1.2e-12
   1   1   1     5   2   1     2.9e-24   8.3e-20   2.0e-16   3.0e-15   1.3e-14   6.3e-14   1.6e-13   4.8e-13
   1   1   1     5   4   0     7.3e-21   3.9e-17   2.6e-14   2.4e-13   7.9e-13   2.9e-12   6.1e-12   1.4e-11
   1   1   1     5   4   1     2.6e-22   1.3e-18   7.2e-16   6.3e-15   2.0e-14   7.5e-14   1.7e-13   4.6e-13
   1   1   1     5   5   0     1.8e-21   2.2e-18   4.3e-16   2.5e-15   6.5e-15   1.9e-14   3.6e-14   8.6e-14
   1   1   1     5   5   1     4.2e-20   6.5e-17   1.7e-14   1.2e-13   3.3e-13   1.0e-12   2.0e-12   4.4e-12
   2   1   1     1   1   0     3.8e-11   3.9e-11   4.0e-11   4.2e-11   4.3e-11   4.7e-11   5.1e-11   5.7e-11
   2   1   1     1   1   1     1.8e-11   1.9e-11   1.8e-11   1.7e-11   1.6e-11   1.4e-11   1.4e-11   1.3e-11
   2   1   1     2   1   0     3.1e-11   3.1e-11   3.1e-11   3.1e-11   3.2e-11   3.4e-11   3.6e-11   3.9e-11
   2   1   1     2   2   1     1.7e-11   1.8e-11   2.0e-11   2.1e-11   2.1e-11   2.3e-11   2.5e-11   2.7e-11
   2   1   1     2   2   0     3.0e-12   3.9e-12   4.6e-12   4.9e-12   5.3e-12   6.5e-12   7.9e-12   1.1e-11
   2   1   1     3   1   0     2.1e-13   2.0e-12   1.2e-11   2.1e-11   2.9e-11   4.3e-11   5.4e-11   7.2e-11
   2   1   1     3   1   1     4.0e-14   3.6e-13   1.8e-12   2.9e-12   3.7e-12   4.7e-12   5.5e-12   6.7e-12
   2   1   1     3   2   0     4.7e-14   2.0e-13   5.5e-13   7.3e-13   8.4e-13   1.0e-12   1.2e-12   1.6e-12
   2   1   1     3   2   1     2.6e-13   1.6e-12   6.3e-12   1.0e-11   1.3e-11   1.8e-11   2.2e-11   2.6e-11
   2   1   1     4   1   1     6.2e-18   1.4e-15   8.4e-14   3.5e-13   7.3e-13   1.6e-12   2.6e-12   4.4e-12
   2   1   1     4   1   0     8.9e-18   1.9e-15   1.1e-13   4.1e-13   8.1e-13   1.7e-12   2.5e-12   3.8e-12
   2   1   1     4   2   1     5.5e-17   7.2e-15   2.8e-13   9.8e-13   1.9e-12   3.7e-12   5.3e-12   7.8e-12
   2   1   1     4   2   0     2.6e-17   3.4e-15   1.4e-13   5.6e-13   1.2e-12   2.8e-12   4.7e-12   9.1e-12
   2   1   1     4   4   1     1.0e-14   2.6e-13   3.0e-12   6.9e-12   1.1e-11   1.7e-11   2.2e-11   3.0e-11
   2   1   1     4   4   0     2.1e-15   5.2e-14   6.0e-13   1.5e-12   2.4e-12   4.6e-12   6.9e-12   1.2e-11
   2   1   1     5   1   0     5.6e-22   5.3e-18   5.2e-15   5.6e-14   1.9e-13   7.2e-13   1.5e-12   3.2e-12
   2   1   1     5   1   1     6.5e-23   6.0e-19   5.9e-16   6.4e-15   2.2e-14   8.8e-14   1.9e-13   4.8e-13
   2   1   1     5   2   0     1.3e-21   8.5e-18   6.6e-15   6.7e-14   2.3e-13   8.9e-13   1.9e-12   4.9e-12
   2   1   1     5   2   1     4.7e-22   2.9e-18   2.2e-15   2.2e-14   7.1e-14   2.6e-13   5.4e-13   1.3e-12
   2   1   1     5   4   0     5.5e-20   6.5e-17   1.3e-14   8.6e-14   2.3e-13   7.2e-13   1.4e-12   3.2e-12
   2   1   1     5   4   1     3.9e-19   4.6e-16   9.4e-14   5.8e-13   1.5e-12   4.1e-12   7.2e-12   1.4e-11
   2   1   1     5   5   0     2.3e-19   7.4e-17   6.1e-15   3.0e-14   7.3e-14   2.2e-13   4.3e-13   1.1e-12
   2   1   1     5   5   1     1.2e-18   4.1e-16   3.4e-14   1.6e-13   3.8e-13   9.8e-13   1.7e-12   3.4e-12
   2   1   0     1   1   0     1.8e-11   1.9e-11   1.8e-11   1.7e-11   1.6e-11   1.4e-11   1.4e-11   1.3e-11
   2   1   0     1   1   1     3.8e-11   3.9e-11   4.0e-11   4.2e-11   4.3e-11   4.7e-11   5.1e-11   5.7e-11
   2   1   0     2   1   1     3.1e-11   3.1e-11   3.1e-11   3.1e-11   3.2e-11   3.4e-11   3.6e-11   3.9e-11
   2   1   0     2   2   1     3.0e-12   3.9e-12   4.6e-12   4.9e-12   5.3e-12   6.5e-12   7.9e-12   1.1e-11
   2   1   0     2   2   0     1.7e-11   1.8e-11   2.0e-11   2.1e-11   2.1e-11   2.3e-11   2.5e-11   2.7e-11
   2   1   0     3   1   0     4.0e-14   3.6e-13   1.8e-12   2.9e-12   3.7e-12   4.7e-12   5.5e-12   6.7e-12
   2   1   0     3   1   1     2.1e-13   2.0e-12   1.2e-11   2.1e-11   2.9e-11   4.3e-11   5.4e-11   7.2e-11
   2   1   0     3   2   0     2.6e-13   1.6e-12   6.3e-12   1.0e-11   1.3e-11   1.8e-11   2.2e-11   2.6e-11
   2   1   0     3   2   1     4.7e-14   2.0e-13   5.5e-13   7.3e-13   8.4e-13   1.0e-12   1.2e-12   1.6e-12
   2   1   0     4   1   1     8.9e-18   1.9e-15   1.1e-13   4.1e-13   8.1e-13   1.7e-12   2.5e-12   3.8e-12
   2   1   0     4   1   0     6.2e-18   1.4e-15   8.4e-14   3.5e-13   7.3e-13   1.6e-12   2.6e-12   4.4e-12
   2   1   0     4   2   1     2.6e-17   3.4e-15   1.4e-13   5.6e-13   1.2e-12   2.8e-12   4.7e-12   9.1e-12
   2   1   0     4   2   0     5.5e-17   7.2e-15   2.8e-13   9.8e-13   1.9e-12   3.7e-12   5.3e-12   7.8e-12
   2   1   0     4   4   1     2.1e-15   5.2e-14   6.0e-13   1.5e-12   2.4e-12   4.6e-12   6.9e-12   1.2e-11
   2   1   0     4   4   0     1.0e-14   2.6e-13   3.0e-12   6.9e-12   1.1e-11   1.7e-11   2.2e-11   3.0e-11
   2   1   0     5   1   0     6.5e-23   6.0e-19   5.9e-16   6.4e-15   2.2e-14   8.8e-14   1.9e-13   4.8e-13
   2   1   0     5   1   1     5.6e-22   5.3e-18   5.2e-15   5.6e-14   1.9e-13   7.2e-13   1.5e-12   3.2e-12
   2   1   0     5   2   0     4.7e-22   2.9e-18   2.2e-15   2.2e-14   7.1e-14   2.6e-13   5.4e-13   1.3e-12
   2   1   0     5   2   1     1.3e-21   8.5e-18   6.6e-15   6.7e-14   2.3e-13   8.9e-13   1.9e-12   4.9e-12
   2   1   0     5   4   0     3.9e-19   4.6e-16   9.4e-14   5.8e-13   1.5e-12   4.1e-12   7.2e-12   1.4e-11
   2   1   0     5   4   1     5.5e-20   6.5e-17   1.3e-14   8.6e-14   2.3e-13   7.2e-13   1.4e-12   3.2e-12
   2   1   0     5   5   0     1.2e-18   4.1e-16   3.4e-14   1.6e-13   3.8e-13   9.8e-13   1.7e-12   3.4e-12
   2   1   0     5   5   1     2.3e-19   7.4e-17   6.1e-15   3.0e-14   7.3e-14   2.2e-13   4.3e-13   1.1e-12
   2   2   1     1   1   0     3.3e-12   2.5e-12   1.7e-12   1.3e-12   1.0e-12   6.8e-13   5.0e-13   3.3e-13
   2   2   1     1   1   1     3.0e-11   2.8e-11   2.7e-11   2.7e-11   2.8e-11   2.9e-11   3.1e-11   3.3e-11
   2   2   1     2   1   1     5.9e-12   9.8e-12   1.4e-11   1.7e-11   1.8e-11   2.1e-11   2.3e-11   2.5e-11
   2   2   1     2   1   0     1.0e-12   2.1e-12   3.3e-12   4.0e-12   4.5e-12   5.9e-12   7.3e-12   1.0e-11
   2   2   1     2   2   0     1.1e-10   1.1e-10   1.0e-10   1.0e-10   1.1e-10   1.1e-10   1.2e-10   1.3e-10
   2   2   1     3   1   0     5.2e-15   8.4e-14   7.5e-13   1.7e-12   2.7e-12   4.8e-12   7.1e-12   1.2e-11
   2   2   1     3   1   1     1.2e-14   1.8e-13   1.4e-12   2.8e-12   4.1e-12   6.1e-12   7.6e-12   9.8e-12
   2   2   1     3   2   0     1.7e-13   1.7e-12   9.1e-12   1.7e-11   2.3e-11   3.3e-11   4.1e-11   5.5e-11
   2   2   1     3   2   1     8.1e-14   7.7e-13   4.1e-12   6.9e-12   8.8e-12   1.1e-11   1.3e-11   1.4e-11
   2   2   1     4   1   1     1.6e-18   5.1e-16   4.0e-14   1.7e-13   3.8e-13   8.6e-13   1.4e-12   2.3e-12
   2   2   1     4   1   0     2.0e-18   6.6e-16   5.4e-14   2.6e-13   6.0e-13   1.6e-12   2.8e-12   5.6e-12
   2   2   1     4   2   1     7.7e-18   1.4e-15   6.8e-14   2.5e-13   5.2e-13   1.1e-12   1.8e-12   3.3e-12
   2   2   1     4   2   0     2.1e-17   4.1e-15   2.1e-13   8.1e-13   1.6e-12   3.2e-12   4.7e-12   7.1e-12
   2   2   1     4   4   1     3.0e-16   1.2e-14   2.0e-13   5.5e-13   9.7e-13   1.9e-12   2.8e-12   4.6e-12
   2   2   1     4   4   0     1.2e-17   4.6e-16   5.8e-15   1.2e-14   1.6e-14   2.0e-14   2.3e-14   3.1e-14
   2   2   1     5   1   0     5.1e-23   7.4e-19   1.0e-15   1.3e-14   5.0e-14   2.2e-13   5.2e-13   1.4e-12
   2   2   1     5   1   1     2.1e-23   3.1e-19   4.2e-16   5.1e-15   1.9e-14   8.3e-14   1.9e-13   5.3e-13
   2   2   1     5   2   0     2.5e-22   2.5e-18   2.6e-15   2.8e-14   1.0e-13   3.9e-13   8.2e-13   1.9e-12
   2   2   1     5   2   1     1.1e-22   1.0e-18   1.0e-15   1.2e-14   4.1e-14   1.6e-13   3.6e-13   8.8e-13
   2   2   1     5   4   0     5.7e-21   1.0e-17   3.2e-15   2.5e-14   7.8e-14   3.0e-13   6.8e-13   1.9e-12
   2   2   1     5   4   1     7.9e-21   1.4e-17   4.2e-15   3.0e-14   8.7e-14   2.9e-13   5.7e-13   1.3e-12
   2   2   1     5   5   0     1.1e-18   5.5e-16   6.0e-14   3.1e-13   7.5e-13   2.0e-12   3.7e-12   7.4e-12
   2   2   1     5   5   1     8.4e-18   4.3e-15   4.6e-13   2.2e-12   5.1e-12   1.2e-11   2.0e-11   3.4e-11
   2   2   0     1   1   0     3.0e-11   2.8e-11   2.7e-11   2.7e-11   2.8e-11   2.9e-11   3.1e-11   3.3e-11
   2   2   0     1   1   1     3.3e-12   2.5e-12   1.7e-12   1.3e-12   1.0e-12   6.8e-13   5.0e-13   3.3e-13
   2   2   0     2   1   1     1.0e-12   2.1e-12   3.3e-12   4.0e-12   4.5e-12   5.9e-12   7.3e-12   1.0e-11
   2   2   0     2   1   0     5.9e-12   9.8e-12   1.4e-11   1.7e-11   1.8e-11   2.1e-11   2.3e-11   2.5e-11
   2   2   0     2   2   1     1.1e-10   1.1e-10   1.0e-10   1.0e-10   1.1e-10   1.1e-10   1.2e-10   1.3e-10
   2   2   0     3   1   0     1.2e-14   1.8e-13   1.4e-12   2.8e-12   4.1e-12   6.1e-12   7.6e-12   9.8e-12
   2   2   0     3   1   1     5.2e-15   8.4e-14   7.5e-13   1.7e-12   2.7e-12   4.8e-12   7.1e-12   1.2e-11
   2   2   0     3   2   0     8.1e-14   7.7e-13   4.1e-12   6.9e-12   8.8e-12   1.1e-11   1.3e-11   1.4e-11
   2   2   0     3   2   1     1.7e-13   1.7e-12   9.1e-12   1.7e-11   2.3e-11   3.3e-11   4.1e-11   5.5e-11
   2   2   0     4   1   1     2.0e-18   6.6e-16   5.4e-14   2.6e-13   6.0e-13   1.6e-12   2.8e-12   5.6e-12
   2   2   0     4   1   0     1.6e-18   5.1e-16   4.0e-14   1.7e-13   3.8e-13   8.6e-13   1.4e-12   2.3e-12
   2   2   0     4   2   1     2.1e-17   4.1e-15   2.1e-13   8.1e-13   1.6e-12   3.2e-12   4.7e-12   7.1e-12
   2   2   0     4   2   0     7.7e-18   1.4e-15   6.8e-14   2.5e-13   5.2e-13   1.1e-12   1.8e-12   3.3e-12
   2   2   0     4   4   1     1.2e-17   4.6e-16   5.8e-15   1.2e-14   1.6e-14   2.0e-14   2.3e-14   3.1e-14
   2   2   0     4   4   0     3.0e-16   1.2e-14   2.0e-13   5.5e-13   9.7e-13   1.9e-12   2.8e-12   4.6e-12
   2   2   0     5   1   0     2.1e-23   3.1e-19   4.2e-16   5.1e-15   1.9e-14   8.3e-14   1.9e-13   5.3e-13
   2   2   0     5   1   1     5.1e-23   7.4e-19   1.0e-15   1.3e-14   5.0e-14   2.2e-13   5.2e-13   1.4e-12
   2   2   0     5   2   0     1.1e-22   1.0e-18   1.0e-15   1.2e-14   4.1e-14   1.6e-13   3.6e-13   8.8e-13
   2   2   0     5   2   1     2.5e-22   2.5e-18   2.6e-15   2.8e-14   1.0e-13   3.9e-13   8.2e-13   1.9e-12
   2   2   0     5   4   0     7.9e-21   1.4e-17   4.2e-15   3.0e-14   8.7e-14   2.9e-13   5.7e-13   1.3e-12
   2   2   0     5   4   1     5.7e-21   1.0e-17   3.2e-15   2.5e-14   7.8e-14   3.0e-13   6.8e-13   1.9e-12
   2   2   0     5   5   0     8.4e-18   4.3e-15   4.6e-13   2.2e-12   5.1e-12   1.2e-11   2.0e-11   3.4e-11
   2   2   0     5   5   1     1.1e-18   5.5e-16   6.0e-14   3.1e-13   7.5e-13   2.0e-12   3.7e-12   7.4e-12
   3   1   0     1   1   0     7.2e-12   6.3e-12   5.3e-12   5.0e-12   4.9e-12   4.8e-12   4.9e-12   5.3e-12
   3   1   0     1   1   1     7.9e-12   7.3e-12   6.6e-12   6.3e-12   6.2e-12   6.2e-12   6.2e-12   6.4e-12
   3   1   0     2   1   1     4.5e-11   4.5e-11   4.6e-11   4.7e-11   5.0e-11   5.4e-11   5.9e-11   6.8e-11
   3   1   0     2   1   0     8.7e-12   8.0e-12   7.1e-12   6.6e-12   6.3e-12   6.0e-12   6.0e-12   6.4e-12
   3   1   0     2   2   1     3.2e-12   3.5e-12   4.1e-12   4.7e-12   5.3e-12   6.8e-12   8.4e-12   1.2e-11
   3   1   0     2   2   0     7.4e-12   7.5e-12   7.7e-12   7.9e-12   8.1e-12   8.6e-12   9.0e-12   9.8e-12
   3   1   0     3   1   1     1.7e-11   1.7e-11   1.7e-11   1.7e-11   1.7e-11   1.8e-11   1.8e-11   2.0e-11
   3   1   0     3   2   0     1.2e-11   1.3e-11   1.5e-11   1.6e-11   1.8e-11   2.0e-11   2.2e-11   2.5e-11
   3   1   0     3   2   1     1.0e-12   1.6e-12   2.4e-12   2.5e-12   2.5e-12   2.6e-12   2.8e-12   3.6e-12
   3   1   0     4   1   1     2.7e-14   5.8e-13   6.0e-12   1.4e-11   2.1e-11   3.5e-11   4.7e-11   6.7e-11
   3   1   0     4   1   0     1.5e-15   3.4e-14   3.2e-13   6.7e-13   9.7e-13   1.4e-12   1.8e-12   2.5e-12
   3   1   0     4   2   1     1.2e-14   8.8e-14   3.1e-13   4.7e-13   6.0e-13   8.7e-13   1.2e-12   1.9e-12
   3   1   0     4   2   0     3.0e-14   4.0e-13   2.8e-12   5.7e-12   8.2e-12   1.3e-11   1.6e-11   2.1e-11
   3   1   0     4   4   1     3.6e-13   9.5e-13   2.2e-12   3.2e-12   4.2e-12   6.5e-12   9.0e-12   1.4e-11
   3   1   0     4   4   0     1.0e-12   2.7e-12   5.9e-12   8.0e-12   9.7e-12   1.2e-11   1.5e-11   1.8e-11
   3   1   0     5   1   0     1.9e-20   1.9e-17   3.6e-15   2.3e-14   6.5e-14   2.1e-13   4.2e-13   9.7e-13
   3   1   0     5   1   1     1.1e-19   1.0e-16   1.7e-14   9.8e-14   2.4e-13   6.3e-13   1.1e-12   1.9e-12
   3   1   0     5   2   0     7.8e-19   4.9e-16   6.5e-14   3.5e-13   8.4e-13   2.2e-12   3.7e-12   6.8e-12
   3   1   0     5   2   1     4.4e-19   2.8e-16   3.9e-14   2.2e-13   5.7e-13   1.7e-12   3.1e-12   6.8e-12
   3   1   0     5   4   0     1.7e-16   2.1e-14   7.4e-13   2.5e-12   4.9e-12   9.9e-12   1.5e-11   2.3e-11
   3   1   0     5   4   1     1.9e-17   2.2e-15   7.3e-14   2.4e-13   4.5e-13   9.0e-13   1.4e-12   2.3e-12
   3   1   0     5   5   0     1.7e-16   5.7e-15   8.7e-14   2.4e-13   4.3e-13   8.7e-13   1.4e-12   2.4e-12
   3   1   0     5   5   1     6.7e-17   2.3e-15   3.6e-14   1.0e-13   2.0e-13   4.6e-13   8.2e-13   1.8e-12
   3   1   1     1   1   0     7.9e-12   7.3e-12   6.6e-12   6.3e-12   6.2e-12   6.2e-12   6.2e-12   6.4e-12
   3   1   1     1   1   1     7.2e-12   6.3e-12   5.3e-12   5.0e-12   4.9e-12   4.8e-12   4.9e-12   5.3e-12
   3   1   1     2   1   1     8.7e-12   8.0e-12   7.1e-12   6.6e-12   6.3e-12   6.0e-12   6.0e-12   6.4e-12
   3   1   1     2   1   0     4.5e-11   4.5e-11   4.6e-11   4.7e-11   5.0e-11   5.4e-11   5.9e-11   6.8e-11
   3   1   1     2   2   1     7.4e-12   7.5e-12   7.7e-12   7.9e-12   8.1e-12   8.6e-12   9.0e-12   9.8e-12
   3   1   1     2   2   0     3.2e-12   3.5e-12   4.1e-12   4.7e-12   5.3e-12   6.8e-12   8.4e-12   1.2e-11
   3   1   1     3   1   0     1.7e-11   1.7e-11   1.7e-11   1.7e-11   1.7e-11   1.8e-11   1.8e-11   2.0e-11
   3   1   1     3   2   0     1.0e-12   1.6e-12   2.4e-12   2.5e-12   2.5e-12   2.6e-12   2.8e-12   3.6e-12
   3   1   1     3   2   1     1.2e-11   1.3e-11   1.5e-11   1.6e-11   1.8e-11   2.0e-11   2.2e-11   2.5e-11
   3   1   1     4   1   1     1.5e-15   3.4e-14   3.2e-13   6.7e-13   9.7e-13   1.4e-12   1.8e-12   2.5e-12
   3   1   1     4   1   0     2.7e-14   5.8e-13   6.0e-12   1.4e-11   2.1e-11   3.5e-11   4.7e-11   6.7e-11
   3   1   1     4   2   1     3.0e-14   4.0e-13   2.8e-12   5.7e-12   8.2e-12   1.3e-11   1.6e-11   2.1e-11
   3   1   1     4   2   0     1.2e-14   8.8e-14   3.1e-13   4.7e-13   6.0e-13   8.7e-13   1.2e-12   1.9e-12
   3   1   1     4   4   1     1.0e-12   2.7e-12   5.9e-12   8.0e-12   9.7e-12   1.2e-11   1.5e-11   1.8e-11
   3   1   1     4   4   0     3.6e-13   9.5e-13   2.2e-12   3.2e-12   4.2e-12   6.5e-12   9.0e-12   1.4e-11
   3   1   1     5   1   0     1.1e-19   1.0e-16   1.7e-14   9.8e-14   2.4e-13   6.3e-13   1.1e-12   1.9e-12
   3   1   1     5   1   1     1.9e-20   1.9e-17   3.6e-15   2.3e-14   6.5e-14   2.1e-13   4.2e-13   9.7e-13
   3   1   1     5   2   0     4.4e-19   2.8e-16   3.9e-14   2.2e-13   5.7e-13   1.7e-12   3.1e-12   6.8e-12
   3   1   1     5   2   1     7.8e-19   4.9e-16   6.5e-14   3.5e-13   8.4e-13   2.2e-12   3.7e-12   6.8e-12
   3   1   1     5   4   0     1.9e-17   2.2e-15   7.3e-14   2.4e-13   4.5e-13   9.0e-13   1.4e-12   2.3e-12
   3   1   1     5   4   1     1.7e-16   2.1e-14   7.4e-13   2.5e-12   4.9e-12   9.9e-12   1.5e-11   2.3e-11
   3   1   1     5   5   0     6.7e-17   2.3e-15   3.6e-14   1.0e-13   2.0e-13   4.6e-13   8.2e-13   1.8e-12
   3   1   1     5   5   1     1.7e-16   5.7e-15   8.7e-14   2.4e-13   4.3e-13   8.7e-13   1.4e-12   2.4e-12
   3   2   0     1   1   0     7.9e-12   7.5e-12   7.1e-12   7.1e-12   7.2e-12   7.4e-12   7.7e-12   8.2e-12
   3   2   0     1   1   1     4.3e-12   4.0e-12   4.1e-12   4.5e-12   5.1e-12   6.5e-12   8.0e-12   1.1e-11
   3   2   0     2   1   1     3.6e-12   2.4e-12   1.6e-12   1.3e-12   1.2e-12   1.1e-12   1.2e-12   1.5e-12
   3   2   0     2   1   0     2.0e-11   1.9e-11   1.8e-11   1.9e-11   1.9e-11   2.1e-11   2.2e-11   2.4e-11
   3   2   0     2   2   1     3.8e-11   3.7e-11   3.6e-11   3.7e-11   3.8e-11   4.2e-11   4.5e-11   5.2e-11
   3   2   0     2   2   0     1.8e-11   1.7e-11   1.6e-11   1.5e-11   1.5e-11   1.4e-11   1.4e-11   1.4e-11
   3   2   0     3   1   0     4.2e-12   7.0e-12   1.1e-11   1.3e-11   1.5e-11   1.8e-11   2.0e-11   2.4e-11
   3   2   0     3   1   1     3.5e-13   8.4e-13   1.7e-12   2.0e-12   2.1e-12   2.3e-12   2.6e-12   3.4e-12
   3   2   0     3   2   1     6.3e-11   6.1e-11   5.9e-11   5.9e-11   5.9e-11   6.1e-11   6.3e-11   6.8e-11
   3   2   0     4   1   1     5.3e-16   1.8e-14   2.7e-13   7.7e-13   1.4e-12   2.9e-12   4.5e-12   8.2e-12
   3   2   0     4   1   0     1.9e-15   6.1e-14   8.4e-13   2.1e-12   3.3e-12   5.5e-12   7.4e-12   1.0e-11
   3   2   0     4   2   1     2.3e-14   4.8e-13   4.9e-12   1.1e-11   1.7e-11   2.8e-11   3.8e-11   5.4e-11
   3   2   0     4   2   0     5.3e-15   1.0e-13   9.0e-13   1.8e-12   2.6e-12   3.7e-12   4.5e-12   5.6e-12
   3   2   0     4   4   1     9.6e-15   4.4e-14   1.4e-13   2.1e-13   2.9e-13   4.9e-13   7.7e-13   1.5e-12
   3   2   0     4   4   0     3.6e-14   1.5e-13   4.6e-13   7.5e-13   1.0e-12   1.6e-12   2.1e-12   3.3e-12
   3   2   0     5   1   0     3.7e-20   5.4e-17   1.3e-14   8.4e-14   2.3e-13   6.6e-13   1.2e-12   2.5e-12
   3   2   0     5   1   1     5.1e-20   7.4e-17   1.8e-14   1.3e-13   3.6e-13   1.2e-12   2.3e-12   5.2e-12
   3   2   0     5   2   0     2.7e-20   2.5e-17   4.5e-15   2.8e-14   7.8e-14   2.4e-13   4.7e-13   1.1e-12
   3   2   0     5   2   1     2.6e-19   2.5e-16   4.5e-14   2.7e-13   6.7e-13   1.8e-12   3.0e-12   5.3e-12
   3   2   0     5   4   0     3.0e-18   5.7e-16   3.1e-14   1.3e-13   2.8e-13   7.2e-13   1.3e-12   2.8e-12
   3   2   0     5   4   1     3.2e-19   7.4e-17   4.2e-15   1.5e-14   3.1e-14   7.1e-14   1.3e-13   3.1e-13
   3   2   0     5   5   0     1.4e-15   7.1e-14   1.3e-12   3.7e-12   6.3e-12   1.1e-11   1.6e-11   2.3e-11
   3   2   0     5   5   1     5.2e-16   2.6e-14   5.1e-13   1.5e-12   2.7e-12   5.5e-12   8.6e-12   1.5e-11
   3   2   1     1   1   0     4.3e-12   4.0e-12   4.1e-12   4.5e-12   5.1e-12   6.5e-12   8.0e-12   1.1e-11
   3   2   1     1   1   1     7.9e-12   7.5e-12   7.1e-12   7.1e-12   7.2e-12   7.4e-12   7.7e-12   8.2e-12
   3   2   1     2   1   1     2.0e-11   1.9e-11   1.8e-11   1.9e-11   1.9e-11   2.1e-11   2.2e-11   2.4e-11
   3   2   1     2   1   0     3.6e-12   2.4e-12   1.6e-12   1.3e-12   1.2e-12   1.1e-12   1.2e-12   1.5e-12
   3   2   1     2   2   1     1.8e-11   1.7e-11   1.6e-11   1.5e-11   1.5e-11   1.4e-11   1.4e-11   1.4e-11
   3   2   1     2   2   0     3.8e-11   3.7e-11   3.6e-11   3.7e-11   3.8e-11   4.2e-11   4.5e-11   5.2e-11
   3   2   1     3   1   0     3.5e-13   8.4e-13   1.7e-12   2.0e-12   2.1e-12   2.3e-12   2.6e-12   3.4e-12
   3   2   1     3   1   1     4.2e-12   7.0e-12   1.1e-11   1.3e-11   1.5e-11   1.8e-11   2.0e-11   2.4e-11
   3   2   1     3   2   0     6.3e-11   6.1e-11   5.9e-11   5.9e-11   5.9e-11   6.1e-11   6.3e-11   6.8e-11
   3   2   1     4   1   1     1.9e-15   6.1e-14   8.4e-13   2.1e-12   3.3e-12   5.5e-12   7.4e-12   1.0e-11
   3   2   1     4   1   0     5.3e-16   1.8e-14   2.7e-13   7.7e-13   1.4e-12   2.9e-12   4.5e-12   8.2e-12
   3   2   1     4   2   1     5.3e-15   1.0e-13   9.0e-13   1.8e-12   2.6e-12   3.7e-12   4.5e-12   5.6e-12
   3   2   1     4   2   0     2.3e-14   4.8e-13   4.9e-12   1.1e-11   1.7e-11   2.8e-11   3.8e-11   5.4e-11
   3   2   1     4   4   1     3.6e-14   1.5e-13   4.6e-13   7.5e-13   1.0e-12   1.6e-12   2.1e-12   3.3e-12
   3   2   1     4   4   0     9.6e-15   4.4e-14   1.4e-13   2.1e-13   2.9e-13   4.9e-13   7.7e-13   1.5e-12
   3   2   1     5   1   0     5.1e-20   7.4e-17   1.8e-14   1.3e-13   3.6e-13   1.2e-12   2.3e-12   5.2e-12
   3   2   1     5   1   1     3.7e-20   5.4e-17   1.3e-14   8.4e-14   2.3e-13   6.6e-13   1.2e-12   2.5e-12
   3   2   1     5   2   0     2.6e-19   2.5e-16   4.5e-14   2.7e-13   6.7e-13   1.8e-12   3.0e-12   5.3e-12
   3   2   1     5   2   1     2.7e-20   2.5e-17   4.5e-15   2.8e-14   7.8e-14   2.4e-13   4.7e-13   1.1e-12
   3   2   1     5   4   0     3.2e-19   7.4e-17   4.2e-15   1.5e-14   3.1e-14   7.1e-14   1.3e-13   3.1e-13
   3   2   1     5   4   1     3.0e-18   5.7e-16   3.1e-14   1.3e-13   2.8e-13   7.2e-13   1.3e-12   2.8e-12
   3   2   1     5   5   0     5.2e-16   2.6e-14   5.1e-13   1.5e-12   2.7e-12   5.5e-12   8.6e-12   1.5e-11
   3   2   1     5   5   1     1.4e-15   7.1e-14   1.3e-12   3.7e-12   6.3e-12   1.1e-11   1.6e-11   2.3e-11
   4   1   1     1   1   0     2.3e-12   2.3e-12   2.4e-12   2.5e-12   2.6e-12   2.8e-12   2.9e-12   3.2e-12
   4   1   1     1   1   1     2.5e-13   2.6e-13   2.8e-13   3.1e-13   3.5e-13   4.5e-13   5.7e-13   8.3e-13
   4   1   1     2   1   1     2.2e-12   2.3e-12   2.6e-12   2.8e-12   3.0e-12   3.4e-12   3.9e-12   4.8e-12
   4   1   1     2   1   0     3.1e-12   3.2e-12   3.2e-12   3.3e-12   3.3e-12   3.5e-12   3.7e-12   4.2e-12
   4   1   1     2   2   1     1.6e-12   1.6e-12   1.7e-12   1.7e-12   1.8e-12   2.0e-12   2.2e-12   2.6e-12
   4   1   1     2   2   0     2.0e-12   2.1e-12   2.3e-12   2.5e-12   2.9e-12   3.7e-12   4.6e-12   6.4e-12
   4   1   1     3   1   0     4.2e-11   4.4e-11   4.6e-11   4.9e-11   5.2e-11   5.8e-11   6.4e-11   7.6e-11
   4   1   1     3   1   1     2.5e-12   2.5e-12   2.5e-12   2.4e-12   2.4e-12   2.4e-12   2.5e-12   2.9e-12
   4   1   1     3   2   0     2.4e-12   2.5e-12   2.9e-12   3.4e-12   4.0e-12   5.3e-12   6.7e-12   9.8e-12
   4   1   1     3   2   1     8.5e-12   8.6e-12   8.8e-12   9.1e-12   9.4e-12   1.0e-11   1.1e-11   1.2e-11
   4   1   1     4   1   0     1.1e-11   1.1e-11   1.1e-11   1.1e-11   1.1e-11   1.1e-11   1.2e-11   1.3e-11
   4   1   1     4   2   1     1.0e-11   1.1e-11   1.3e-11   1.4e-11   1.6e-11   1.8e-11   2.1e-11   2.5e-11
   4   1   1     4   2   0     3.8e-13   4.3e-13   7.7e-13   9.8e-13   1.1e-12   1.3e-12   1.5e-12   2.0e-12
   4   1   1     4   4   1     5.0e-12   5.0e-12   5.0e-12   5.2e-12   5.4e-12   6.0e-12   6.5e-12   7.7e-12
   4   1   1     4   4   0     2.8e-12   3.0e-12   3.3e-12   3.7e-12   4.2e-12   5.6e-12   7.2e-12   1.1e-11
   4   1   1     5   1   0     4.5e-15   2.0e-13   3.5e-12   9.3e-12   1.6e-11   2.9e-11   4.1e-11   6.2e-11
   4   1   1     5   1   1     9.5e-17   3.9e-15   6.1e-14   1.6e-13   2.6e-13   4.8e-13   7.0e-13   1.2e-12
   4   1   1     5   2   0     1.1e-15   2.8e-14   2.4e-13   4.7e-13   6.8e-13   1.1e-12   1.7e-12   2.9e-12
   4   1   1     5   2   1     3.7e-15   1.1e-13   1.4e-12   3.5e-12   5.7e-12   1.0e-11   1.4e-11   2.2e-11
   4   1   1     5   4   0     6.1e-14   3.8e-13   1.5e-12   2.4e-12   3.1e-12   4.4e-12   5.8e-12   8.8e-12
   4   1   1     5   4   1     2.1e-13   1.2e-12   4.3e-12   6.9e-12   9.1e-12   1.3e-11   1.6e-11   2.1e-11
   4   1   1     5   5   0     5.3e-14   9.5e-14   1.9e-13   2.8e-13   3.8e-13   6.6e-13   1.0e-12   2.1e-12
   4   1   1     5   5   1     8.6e-14   1.5e-13   2.6e-13   3.5e-13   4.5e-13   6.7e-13   9.3e-13   1.5e-12
   4   1   0     1   1   0     2.5e-13   2.6e-13   2.8e-13   3.1e-13   3.5e-13   4.5e-13   5.7e-13   8.3e-13
   4   1   0     1   1   1     2.3e-12   2.3e-12   2.4e-12   2.5e-12   2.6e-12   2.8e-12   2.9e-12   3.2e-12
   4   1   0     2   1   1     3.1e-12   3.2e-12   3.2e-12   3.3e-12   3.3e-12   3.5e-12   3.7e-12   4.2e-12
   4   1   0     2   1   0     2.2e-12   2.3e-12   2.6e-12   2.8e-12   3.0e-12   3.4e-12   3.9e-12   4.8e-12
   4   1   0     2   2   1     2.0e-12   2.1e-12   2.3e-12   2.5e-12   2.9e-12   3.7e-12   4.6e-12   6.4e-12
   4   1   0     2   2   0     1.6e-12   1.6e-12   1.7e-12   1.7e-12   1.8e-12   2.0e-12   2.2e-12   2.6e-12
   4   1   0     3   1   0     2.5e-12   2.5e-12   2.5e-12   2.4e-12   2.4e-12   2.4e-12   2.5e-12   2.9e-12
   4   1   0     3   1   1     4.2e-11   4.4e-11   4.6e-11   4.9e-11   5.2e-11   5.8e-11   6.4e-11   7.6e-11
   4   1   0     3   2   0     8.5e-12   8.6e-12   8.8e-12   9.1e-12   9.4e-12   1.0e-11   1.1e-11   1.2e-11
   4   1   0     3   2   1     2.4e-12   2.5e-12   2.9e-12   3.4e-12   4.0e-12   5.3e-12   6.7e-12   9.8e-12
   4   1   0     4   1   1     1.1e-11   1.1e-11   1.1e-11   1.1e-11   1.1e-11   1.1e-11   1.2e-11   1.3e-11
   4   1   0     4   2   1     3.8e-13   4.3e-13   7.7e-13   9.8e-13   1.1e-12   1.3e-12   1.5e-12   2.0e-12
   4   1   0     4   2   0     1.0e-11   1.1e-11   1.3e-11   1.4e-11   1.6e-11   1.8e-11   2.1e-11   2.5e-11
   4   1   0     4   4   1     2.8e-12   3.0e-12   3.3e-12   3.7e-12   4.2e-12   5.6e-12   7.2e-12   1.1e-11
   4   1   0     4   4   0     5.0e-12   5.0e-12   5.0e-12   5.2e-12   5.4e-12   6.0e-12   6.5e-12   7.7e-12
   4   1   0     5   1   0     9.5e-17   3.9e-15   6.1e-14   1.6e-13   2.6e-13   4.8e-13   7.0e-13   1.2e-12
   4   1   0     5   1   1     4.5e-15   2.0e-13   3.5e-12   9.3e-12   1.6e-11   2.9e-11   4.1e-11   6.2e-11
   4   1   0     5   2   0     3.7e-15   1.1e-13   1.4e-12   3.5e-12   5.7e-12   1.0e-11   1.4e-11   2.2e-11
   4   1   0     5   2   1     1.1e-15   2.8e-14   2.4e-13   4.7e-13   6.8e-13   1.1e-12   1.7e-12   2.9e-12
   4   1   0     5   4   0     2.1e-13   1.2e-12   4.3e-12   6.9e-12   9.1e-12   1.3e-11   1.6e-11   2.1e-11
   4   1   0     5   4   1     6.1e-14   3.8e-13   1.5e-12   2.4e-12   3.1e-12   4.4e-12   5.8e-12   8.8e-12
   4   1   0     5   5   0     8.6e-14   1.5e-13   2.6e-13   3.5e-13   4.5e-13   6.7e-13   9.3e-13   1.5e-12
   4   1   0     5   5   1     5.3e-14   9.5e-14   1.9e-13   2.8e-13   3.8e-13   6.6e-13   1.0e-12   2.1e-12
   4   2   1     1   1   0     2.1e-12   2.1e-12   2.2e-12   2.4e-12   2.7e-12   3.4e-12   4.1e-12   5.6e-12
   4   2   1     1   1   1     9.9e-13   9.5e-13   9.5e-13   9.8e-13   1.0e-12   1.2e-12   1.3e-12   1.6e-12
   4   2   1     2   1   1     6.7e-12   6.4e-12   6.3e-12   6.4e-12   6.6e-12   7.0e-12   7.4e-12   8.0e-12
   4   2   1     2   1   0     3.1e-12   3.0e-12   3.2e-12   3.6e-12   4.1e-12   5.3e-12   6.6e-12   9.3e-12
   4   2   1     2   2   1     2.7e-12   2.4e-12   2.1e-12   2.0e-12   2.1e-12   2.4e-12   2.8e-12   3.5e-12
   4   2   1     2   2   0     7.2e-12   6.9e-12   6.5e-12   6.5e-12   6.6e-12   6.9e-12   7.1e-12   7.7e-12
   4   2   1     3   1   0     6.5e-12   3.5e-12   1.7e-12   1.4e-12   1.2e-12   1.3e-12   1.5e-12   2.1e-12
   4   2   1     3   1   1     1.7e-11   1.6e-11   1.6e-11   1.6e-11   1.7e-11   1.9e-11   2.0e-11   2.3e-11
   4   2   1     3   2   0     3.7e-11   3.6e-11   3.7e-11   3.9e-11   4.2e-11   4.7e-11   5.2e-11   6.2e-11
   4   2   1     3   2   1     8.5e-12   7.7e-12   6.9e-12   6.6e-12   6.4e-12   6.2e-12   6.2e-12   6.4e-12
   4   2   1     4   1   1     3.7e-12   5.9e-12   9.2e-12   1.1e-11   1.3e-11   1.7e-11   1.9e-11   2.4e-11
   4   2   1     4   1   0     1.3e-13   2.3e-13   5.6e-13   8.0e-13   9.4e-13   1.2e-12   1.4e-12   1.9e-12
   4   2   1     4   2   0     3.9e-11   3.8e-11   3.7e-11   3.7e-11   3.7e-11   4.0e-11   4.2e-11   4.7e-11
   4   2   1     4   4   1     1.2e-12   8.6e-13   7.0e-13   7.4e-13   8.3e-13   1.1e-12   1.4e-12   2.0e-12
   4   2   1     4   4   0     4.1e-13   3.2e-13   3.2e-13   4.0e-13   5.0e-13   7.9e-13   1.2e-12   2.3e-12
   4   2   1     5   1   0     8.4e-17   5.6e-15   1.4e-13   4.6e-13   9.1e-13   2.1e-12   3.5e-12   6.9e-12
   4   2   1     5   1   1     3.3e-16   2.2e-14   5.2e-13   1.5e-12   2.8e-12   5.4e-12   8.0e-12   1.3e-11
   4   2   1     5   2   0     3.1e-15   1.4e-13   2.6e-12   7.4e-12   1.3e-11   2.4e-11   3.4e-11   5.1e-11
   4   2   1     5   2   1     2.2e-16   9.7e-15   1.6e-13   4.2e-13   6.8e-13   1.2e-12   1.6e-12   2.5e-12
   4   2   1     5   4   0     8.5e-16   1.2e-14   6.9e-14   1.1e-13   1.3e-13   1.7e-13   2.2e-13   4.0e-13
   4   2   1     5   4   1     3.9e-15   4.2e-14   2.5e-13   4.8e-13   7.0e-13   1.2e-12   1.7e-12   3.1e-12
   4   2   1     5   5   0     3.6e-13   8.9e-13   1.9e-12   2.8e-12   3.7e-12   5.5e-12   7.6e-12   1.2e-11
   4   2   1     5   5   1     6.8e-13   1.7e-12   3.5e-12   4.7e-12   5.7e-12   7.4e-12   8.9e-12   1.1e-11
   4   2   0     1   1   0     9.9e-13   9.5e-13   9.5e-13   9.8e-13   1.0e-12   1.2e-12   1.3e-12   1.6e-12
   4   2   0     1   1   1     2.1e-12   2.1e-12   2.2e-12   2.4e-12   2.7e-12   3.4e-12   4.1e-12   5.6e-12
   4   2   0     2   1   1     3.1e-12   3.0e-12   3.2e-12   3.6e-12   4.1e-12   5.3e-12   6.6e-12   9.3e-12
   4   2   0     2   1   0     6.7e-12   6.4e-12   6.3e-12   6.4e-12   6.6e-12   7.0e-12   7.4e-12   8.0e-12
   4   2   0     2   2   1     7.2e-12   6.9e-12   6.5e-12   6.5e-12   6.6e-12   6.9e-12   7.1e-12   7.7e-12
   4   2   0     2   2   0     2.7e-12   2.4e-12   2.1e-12   2.0e-12   2.1e-12   2.4e-12   2.8e-12   3.5e-12
   4   2   0     3   1   0     1.7e-11   1.6e-11   1.6e-11   1.6e-11   1.7e-11   1.9e-11   2.0e-11   2.3e-11
   4   2   0     3   1   1     6.5e-12   3.5e-12   1.7e-12   1.4e-12   1.2e-12   1.3e-12   1.5e-12   2.1e-12
   4   2   0     3   2   0     8.5e-12   7.7e-12   6.9e-12   6.6e-12   6.4e-12   6.2e-12   6.2e-12   6.4e-12
   4   2   0     3   2   1     3.7e-11   3.6e-11   3.7e-11   3.9e-11   4.2e-11   4.7e-11   5.2e-11   6.2e-11
   4   2   0     4   1   1     1.3e-13   2.3e-13   5.6e-13   8.0e-13   9.4e-13   1.2e-12   1.4e-12   1.9e-12
   4   2   0     4   1   0     3.7e-12   5.9e-12   9.2e-12   1.1e-11   1.3e-11   1.7e-11   1.9e-11   2.4e-11
   4   2   0     4   2   1     3.9e-11   3.8e-11   3.7e-11   3.7e-11   3.7e-11   4.0e-11   4.2e-11   4.7e-11
   4   2   0     4   4   1     4.1e-13   3.2e-13   3.2e-13   4.0e-13   5.0e-13   7.9e-13   1.2e-12   2.3e-12
   4   2   0     4   4   0     1.2e-12   8.6e-13   7.0e-13   7.4e-13   8.3e-13   1.1e-12   1.4e-12   2.0e-12
   4   2   0     5   1   0     3.3e-16   2.2e-14   5.2e-13   1.5e-12   2.8e-12   5.4e-12   8.0e-12   1.3e-11
   4   2   0     5   1   1     8.4e-17   5.6e-15   1.4e-13   4.6e-13   9.1e-13   2.1e-12   3.5e-12   6.9e-12
   4   2   0     5   2   0     2.2e-16   9.7e-15   1.6e-13   4.2e-13   6.8e-13   1.2e-12   1.6e-12   2.5e-12
   4   2   0     5   2   1     3.1e-15   1.4e-13   2.6e-12   7.4e-12   1.3e-11   2.4e-11   3.4e-11   5.1e-11
   4   2   0     5   4   0     3.9e-15   4.2e-14   2.5e-13   4.8e-13   7.0e-13   1.2e-12   1.7e-12   3.1e-12
   4   2   0     5   4   1     8.5e-16   1.2e-14   6.9e-14   1.1e-13   1.3e-13   1.7e-13   2.2e-13   4.0e-13
   4   2   0     5   5   0     6.8e-13   1.7e-12   3.5e-12   4.7e-12   5.7e-12   7.4e-12   8.9e-12   1.1e-11
   4   2   0     5   5   1     3.6e-13   8.9e-13   1.9e-12   2.8e-12   3.7e-12   5.5e-12   7.6e-12   1.2e-11
   4   4   1     1   1   0     1.6e-12   1.5e-12   1.4e-12   1.5e-12   1.6e-12   1.9e-12   2.3e-12   3.1e-12
   4   4   1     1   1   1     1.9e-11   1.9e-11   1.9e-11   2.0e-11   2.0e-11   2.1e-11   2.2e-11   2.4e-11
   4   4   1     2   1   1     1.9e-11   1.9e-11   1.9e-11   2.0e-11   2.0e-11   2.2e-11   2.3e-11   2.5e-11
   4   4   1     2   1   0     4.0e-12   3.8e-12   3.8e-12   4.1e-12   4.6e-12   5.7e-12   7.0e-12   9.8e-12
   4   4   1     2   2   1     1.6e-12   1.6e-12   1.7e-12   1.9e-12   2.1e-12   2.6e-12   3.1e-12   4.1e-12
   4   4   1     2   2   0     6.5e-14   6.2e-14   5.1e-14   4.1e-14   3.4e-14   2.8e-14   2.5e-14   2.7e-14
   4   4   1     3   1   0     3.1e-12   3.1e-12   3.5e-12   4.0e-12   4.7e-12   6.4e-12   8.4e-12   1.3e-11
   4   4   1     3   1   1     8.7e-12   8.8e-12   9.4e-12   1.0e-11   1.1e-11   1.2e-11   1.4e-11   1.6e-11
   4   4   1     3   2   0     2.3e-13   2.7e-13   3.0e-13   3.2e-13   3.7e-13   5.4e-13   7.8e-13   1.4e-12
   4   4   1     3   2   1     8.6e-13   9.1e-13   1.0e-12   1.2e-12   1.3e-12   1.7e-12   2.2e-12   3.0e-12
   4   4   1     4   1   1     2.7e-14   2.2e-13   1.1e-12   1.8e-12   2.5e-12   3.5e-12   4.4e-12   5.9e-12
   4   4   1     4   1   0     1.5e-14   1.3e-13   6.8e-13   1.3e-12   1.9e-12   3.3e-12   4.8e-12   8.2e-12
   4   4   1     4   2   1     1.9e-14   7.0e-14   2.0e-13   3.2e-13   4.4e-13   7.1e-13   1.0e-12   1.6e-12
   4   4   1     4   2   0     6.2e-15   2.6e-14   9.2e-14   1.7e-13   2.7e-13   5.2e-13   8.6e-13   1.8e-12
   4   4   1     4   4   0     1.3e-10   1.3e-10   1.3e-10   1.3e-10   1.3e-10   1.4e-10   1.6e-10   1.8e-10
   4   4   1     5   1   0     7.8e-19   2.8e-16   2.5e-14   1.2e-13   2.8e-13   7.5e-13   1.4e-12   2.9e-12
   4   4   1     5   1   1     6.3e-19   2.3e-16   1.9e-14   8.8e-14   2.0e-13   5.0e-13   8.5e-13   1.6e-12
   4   4   1     5   2   0     3.9e-19   9.0e-17   5.9e-15   2.8e-14   6.8e-14   2.1e-13   4.5e-13   1.2e-12
   4   4   1     5   2   1     3.9e-19   9.2e-17   5.8e-15   2.6e-14   6.0e-14   1.7e-13   3.2e-13   7.6e-13
   4   4   1     5   4   0     2.7e-15   1.2e-13   2.1e-12   5.6e-12   9.4e-12   1.7e-11   2.4e-11   3.5e-11
   4   4   1     5   4   1     5.5e-16   2.5e-14   4.2e-13   1.1e-12   1.7e-12   3.0e-12   4.1e-12   6.3e-12
   4   4   1     5   5   0     8.3e-18   9.6e-17   6.2e-16   1.2e-15   1.8e-15   3.1e-15   5.3e-15   1.3e-14
   4   4   1     5   5   1     1.3e-16   1.8e-15   1.5e-14   3.6e-14   6.4e-14   1.4e-13   2.5e-13   5.6e-13
   4   4   0     1   1   0     1.9e-11   1.9e-11   1.9e-11   2.0e-11   2.0e-11   2.1e-11   2.2e-11   2.4e-11
   4   4   0     1   1   1     1.6e-12   1.5e-12   1.4e-12   1.5e-12   1.6e-12   1.9e-12   2.3e-12   3.1e-12
   4   4   0     2   1   1     4.0e-12   3.8e-12   3.8e-12   4.1e-12   4.6e-12   5.7e-12   7.0e-12   9.8e-12
   4   4   0     2   1   0     1.9e-11   1.9e-11   1.9e-11   2.0e-11   2.0e-11   2.2e-11   2.3e-11   2.5e-11
   4   4   0     2   2   1     6.5e-14   6.2e-14   5.1e-14   4.1e-14   3.4e-14   2.8e-14   2.5e-14   2.7e-14
   4   4   0     2   2   0     1.6e-12   1.6e-12   1.7e-12   1.9e-12   2.1e-12   2.6e-12   3.1e-12   4.1e-12
   4   4   0     3   1   0     8.7e-12   8.8e-12   9.4e-12   1.0e-11   1.1e-11   1.2e-11   1.4e-11   1.6e-11
   4   4   0     3   1   1     3.1e-12   3.1e-12   3.5e-12   4.0e-12   4.7e-12   6.4e-12   8.4e-12   1.3e-11
   4   4   0     3   2   0     8.6e-13   9.1e-13   1.0e-12   1.2e-12   1.3e-12   1.7e-12   2.2e-12   3.0e-12
   4   4   0     3   2   1     2.3e-13   2.7e-13   3.0e-13   3.2e-13   3.7e-13   5.4e-13   7.8e-13   1.4e-12
   4   4   0     4   1   1     1.5e-14   1.3e-13   6.8e-13   1.3e-12   1.9e-12   3.3e-12   4.8e-12   8.2e-12
   4   4   0     4   1   0     2.7e-14   2.2e-13   1.1e-12   1.8e-12   2.5e-12   3.5e-12   4.4e-12   5.9e-12
   4   4   0     4   2   1     6.2e-15   2.6e-14   9.2e-14   1.7e-13   2.7e-13   5.2e-13   8.6e-13   1.8e-12
   4   4   0     4   2   0     1.9e-14   7.0e-14   2.0e-13   3.2e-13   4.4e-13   7.1e-13   1.0e-12   1.6e-12
   4   4   0     4   4   1     1.3e-10   1.3e-10   1.3e-10   1.3e-10   1.3e-10   1.4e-10   1.6e-10   1.8e-10
   4   4   0     5   1   0     6.3e-19   2.3e-16   1.9e-14   8.8e-14   2.0e-13   5.0e-13   8.5e-13   1.6e-12
   4   4   0     5   1   1     7.8e-19   2.8e-16   2.5e-14   1.2e-13   2.8e-13   7.5e-13   1.4e-12   2.9e-12
   4   4   0     5   2   0     3.9e-19   9.2e-17   5.8e-15   2.6e-14   6.0e-14   1.7e-13   3.2e-13   7.6e-13
   4   4   0     5   2   1     3.9e-19   9.0e-17   5.9e-15   2.8e-14   6.8e-14   2.1e-13   4.5e-13   1.2e-12
   4   4   0     5   4   0     5.5e-16   2.5e-14   4.2e-13   1.1e-12   1.7e-12   3.0e-12   4.1e-12   6.3e-12
   4   4   0     5   4   1     2.7e-15   1.2e-13   2.1e-12   5.6e-12   9.4e-12   1.7e-11   2.4e-11   3.5e-11
   4   4   0     5   5   0     1.3e-16   1.8e-15   1.5e-14   3.6e-14   6.4e-14   1.4e-13   2.5e-13   5.6e-13
   4   4   0     5   5   1     8.3e-18   9.6e-17   6.2e-16   1.2e-15   1.8e-15   3.2e-15   5.3e-15   1.3e-14
   5   1   0     1   1   0     1.4e-13   1.4e-13   1.5e-13   1.8e-13   2.1e-13   2.7e-13   3.4e-13   4.9e-13
   5   1   0     1   1   1     7.0e-14   7.0e-14   7.5e-14   9.0e-14   1.1e-13   1.8e-13   2.7e-13   5.3e-13
   5   1   0     2   1   1     2.2e-12   2.2e-12   2.3e-12   2.5e-12   2.7e-12   3.2e-12   3.7e-12   4.6e-12
   5   1   0     2   1   0     2.6e-13   2.5e-13   2.6e-13   2.8e-13   3.2e-13   4.0e-13   4.9e-13   6.8e-13
   5   1   0     2   2   1     5.8e-13   5.8e-13   6.2e-13   7.1e-13   8.3e-13   1.1e-12   1.4e-12   2.1e-12
   5   1   0     2   2   0     2.4e-13   2.4e-13   2.5e-13   2.8e-13   3.2e-13   4.1e-13   5.2e-13   8.0e-13
   5   1   0     3   1   0     3.4e-13   3.6e-13   3.9e-13   4.6e-13   5.4e-13   7.4e-13   9.7e-13   1.5e-12
   5   1   0     3   1   1     1.9e-12   1.9e-12   1.9e-12   1.9e-12   2.0e-12   2.2e-12   2.4e-12   2.9e-12
   5   1   0     3   2   0     1.9e-12   1.9e-12   1.9e-12   2.0e-12   2.2e-12   2.6e-12   3.0e-12   3.9e-12
   5   1   0     3   2   1     2.6e-12   2.6e-12   2.7e-12   3.1e-12   3.5e-12   4.5e-12   5.7e-12   8.3e-12
   5   1   0     4   1   1     5.1e-11   5.0e-11   4.9e-11   5.1e-11   5.4e-11   6.1e-11   6.8e-11   8.1e-11
   5   1   0     4   1   0     1.1e-12   9.8e-13   8.7e-13   8.6e-13   8.9e-13   1.0e-12   1.2e-12   1.6e-12
   5   1   0     4   2   1     2.7e-12   2.6e-12   2.8e-12   3.1e-12   3.6e-12   4.9e-12   6.3e-12   9.5e-12
   5   1   0     4   2   0     1.1e-11   1.0e-11   1.0e-11   1.1e-11   1.1e-11   1.3e-11   1.4e-11   1.8e-11
   5   1   0     4   4   1     1.7e-12   1.6e-12   1.7e-12   1.9e-12   2.1e-12   2.7e-12   3.4e-12   4.9e-12
   5   1   0     4   4   0     1.3e-12   1.3e-12   1.3e-12   1.4e-12   1.5e-12   1.8e-12   2.1e-12   2.8e-12
   5   1   0     5   1   1     8.4e-12   8.4e-12   8.2e-12   8.4e-12   8.7e-12   9.7e-12   1.1e-11   1.3e-11
   5   1   0     5   2   0     1.1e-11   1.1e-11   1.2e-11   1.4e-11   1.6e-11   2.0e-11   2.4e-11   3.2e-11
   5   1   0     5   2   1     3.2e-13   2.8e-13   2.8e-13   3.2e-13   3.9e-13   5.6e-13   7.8e-13   1.3e-12
   5   1   0     5   4   0     7.7e-12   7.4e-12   7.3e-12   7.7e-12   8.3e-12   9.6e-12   1.1e-11   1.4e-11
   5   1   0     5   4   1     3.0e-12   3.0e-12   3.1e-12   3.5e-12   4.1e-12   5.4e-12   7.0e-12   1.1e-11
   5   1   0     5   5   0     1.9e-13   1.9e-13   2.1e-13   2.5e-13   3.1e-13   4.6e-13   6.4e-13   1.1e-12
   5   1   0     5   5   1     1.8e-13   1.9e-13   2.1e-13   2.7e-13   3.5e-13   5.6e-13   8.5e-13   1.7e-12
   5   1   1     1   1   0     7.0e-14   7.0e-14   7.5e-14   9.0e-14   1.1e-13   1.8e-13   2.7e-13   5.3e-13
   5   1   1     1   1   1     1.4e-13   1.4e-13   1.5e-13   1.8e-13   2.1e-13   2.7e-13   3.4e-13   4.9e-13
   5   1   1     2   1   1     2.6e-13   2.5e-13   2.6e-13   2.8e-13   3.2e-13   4.0e-13   4.9e-13   6.8e-13
   5   1   1     2   1   0     2.2e-12   2.2e-12   2.3e-12   2.5e-12   2.7e-12   3.2e-12   3.7e-12   4.6e-12
   5   1   1     2   2   1     2.4e-13   2.4e-13   2.5e-13   2.8e-13   3.2e-13   4.1e-13   5.2e-13   8.0e-13
   5   1   1     2   2   0     5.8e-13   5.8e-13   6.2e-13   7.1e-13   8.3e-13   1.1e-12   1.4e-12   2.1e-12
   5   1   1     3   1   0     1.9e-12   1.9e-12   1.9e-12   1.9e-12   2.0e-12   2.2e-12   2.4e-12   2.9e-12
   5   1   1     3   1   1     3.4e-13   3.6e-13   3.9e-13   4.6e-13   5.4e-13   7.4e-13   9.7e-13   1.5e-12
   5   1   1     3   2   0     2.6e-12   2.6e-12   2.7e-12   3.1e-12   3.5e-12   4.5e-12   5.7e-12   8.3e-12
   5   1   1     3   2   1     1.9e-12   1.9e-12   1.9e-12   2.0e-12   2.2e-12   2.6e-12   3.0e-12   3.9e-12
   5   1   1     4   1   1     1.1e-12   9.8e-13   8.7e-13   8.6e-13   8.9e-13   1.0e-12   1.2e-12   1.6e-12
   5   1   1     4   1   0     5.1e-11   5.0e-11   4.9e-11   5.1e-11   5.4e-11   6.1e-11   6.8e-11   8.1e-11
   5   1   1     4   2   1     1.1e-11   1.0e-11   1.0e-11   1.1e-11   1.1e-11   1.3e-11   1.4e-11   1.8e-11
   5   1   1     4   2   0     2.7e-12   2.6e-12   2.8e-12   3.1e-12   3.6e-12   4.9e-12   6.3e-12   9.5e-12
   5   1   1     4   4   1     1.3e-12   1.3e-12   1.3e-12   1.4e-12   1.5e-12   1.8e-12   2.1e-12   2.8e-12
   5   1   1     4   4   0     1.7e-12   1.6e-12   1.7e-12   1.9e-12   2.1e-12   2.7e-12   3.4e-12   4.9e-12
   5   1   1     5   1   0     8.4e-12   8.4e-12   8.2e-12   8.4e-12   8.7e-12   9.7e-12   1.1e-11   1.3e-11
   5   1   1     5   2   0     3.2e-13   2.8e-13   2.8e-13   3.2e-13   3.9e-13   5.6e-13   7.8e-13   1.3e-12
   5   1   1     5   2   1     1.1e-11   1.1e-11   1.2e-11   1.4e-11   1.6e-11   2.0e-11   2.4e-11   3.2e-11
   5   1   1     5   4   0     3.0e-12   3.0e-12   3.1e-12   3.5e-12   4.1e-12   5.4e-12   7.0e-12   1.1e-11
   5   1   1     5   4   1     7.7e-12   7.4e-12   7.3e-12   7.7e-12   8.3e-12   9.6e-12   1.1e-11   1.4e-11
   5   1   1     5   5   0     1.8e-13   1.9e-13   2.1e-13   2.7e-13   3.5e-13   5.6e-13   8.5e-13   1.7e-12
   5   1   1     5   5   1     1.9e-13   1.9e-13   2.1e-13   2.5e-13   3.1e-13   4.6e-13   6.4e-13   1.1e-12
   5   2   0     1   1   0     1.1e-13   1.1e-13   1.2e-13   1.4e-13   1.6e-13   2.2e-13   2.9e-13   4.7e-13
   5   2   0     1   1   1     3.3e-13   3.4e-13   3.7e-13   4.3e-13   4.9e-13   6.4e-13   8.1e-13   1.2e-12
   5   2   0     2   1   1     1.9e-12   1.9e-12   2.1e-12   2.4e-12   2.8e-12   3.6e-12   4.6e-12   6.6e-12
   5   2   0     2   1   0     6.5e-13   6.6e-13   7.0e-13   7.7e-13   8.6e-13   1.1e-12   1.3e-12   1.7e-12
   5   2   0     2   2   1     1.0e-12   1.0e-12   1.1e-12   1.3e-12   1.4e-12   1.7e-12   2.1e-12   2.8e-12
   5   2   0     2   2   0     4.2e-13   4.2e-13   4.6e-13   5.1e-13   5.8e-13   7.3e-13   9.0e-13   1.3e-12
   5   2   0     3   1   0     4.9e-12   4.9e-12   5.2e-12   5.6e-12   6.0e-12   7.0e-12   8.0e-12   9.7e-12
   5   2   0     3   1   1     2.8e-12   2.8e-12   3.1e-12   3.5e-12   4.0e-12   5.3e-12   6.7e-12   9.7e-12
   5   2   0     3   2   0     4.8e-13   4.6e-13   4.9e-13   5.6e-13   6.5e-13   8.6e-13   1.1e-12   1.6e-12
   5   2   0     3   2   1     4.8e-12   4.8e-12   5.0e-12   5.2e-12   5.6e-12   6.2e-12   6.8e-12   7.9e-12
   5   2   0     4   1   1     4.4e-12   3.7e-12   2.5e-12   2.1e-12   2.0e-12   2.2e-12   2.6e-12   3.7e-12
   5   2   0     4   1   0     1.5e-11   1.5e-11   1.5e-11   1.6e-11   1.7e-11   1.9e-11   2.2e-11   2.7e-11
   5   2   0     4   2   1     3.6e-11   3.6e-11   3.8e-11   4.0e-11   4.4e-11   5.0e-11   5.6e-11   6.8e-11
   5   2   0     4   2   0     2.5e-12   2.4e-12   2.3e-12   2.3e-12   2.3e-12   2.5e-12   2.7e-12   3.2e-12
   5   2   0     4   4   1     2.9e-13   2.8e-13   3.0e-13   3.5e-13   4.4e-13   6.8e-13   1.0e-12   2.0e-12
   5   2   0     4   4   0     2.9e-13   2.8e-13   2.9e-13   3.3e-13   3.9e-13   5.4e-13   7.3e-13   1.2e-12
   5   2   0     5   1   0     3.9e-12   6.0e-12   9.0e-12   1.1e-11   1.4e-11   1.8e-11   2.2e-11   3.1e-11
   5   2   0     5   1   1     1.1e-13   1.5e-13   2.0e-13   2.6e-13   3.3e-13   5.1e-13   7.2e-13   1.2e-12
   5   2   0     5   2   1     2.9e-11   2.9e-11   2.9e-11   3.0e-11   3.1e-11   3.4e-11   3.7e-11   4.4e-11
   5   2   0     5   4   0     1.4e-12   1.2e-12   9.4e-13   9.0e-13   9.6e-13   1.2e-12   1.7e-12   2.7e-12
   5   2   0     5   4   1     3.5e-13   3.1e-13   2.5e-13   2.5e-13   2.8e-13   4.2e-13   6.3e-13   1.3e-12
   5   2   0     5   5   0     2.5e-12   2.4e-12   2.5e-12   2.7e-12   3.0e-12   3.5e-12   4.0e-12   5.1e-12
   5   2   0     5   5   1     1.9e-12   1.9e-12   2.1e-12   2.4e-12   2.7e-12   3.6e-12   4.6e-12   6.8e-12
   5   2   1     1   1   0     3.3e-13   3.4e-13   3.7e-13   4.3e-13   4.9e-13   6.4e-13   8.1e-13   1.2e-12
   5   2   1     1   1   1     1.1e-13   1.1e-13   1.2e-13   1.4e-13   1.6e-13   2.2e-13   2.9e-13   4.7e-13
   5   2   1     2   1   1     6.5e-13   6.6e-13   7.0e-13   7.7e-13   8.6e-13   1.1e-12   1.3e-12   1.7e-12
   5   2   1     2   1   0     1.9e-12   1.9e-12   2.1e-12   2.4e-12   2.8e-12   3.6e-12   4.6e-12   6.6e-12
   5   2   1     2   2   1     4.2e-13   4.2e-13   4.6e-13   5.1e-13   5.8e-13   7.3e-13   9.0e-13   1.3e-12
   5   2   1     2   2   0     1.0e-12   1.0e-12   1.1e-12   1.3e-12   1.4e-12   1.7e-12   2.1e-12   2.8e-12
   5   2   1     3   1   0     2.8e-12   2.8e-12   3.1e-12   3.5e-12   4.0e-12   5.3e-12   6.7e-12   9.7e-12
   5   2   1     3   1   1     4.9e-12   4.9e-12   5.2e-12   5.6e-12   6.0e-12   7.0e-12   8.0e-12   9.7e-12
   5   2   1     3   2   0     4.8e-12   4.8e-12   5.0e-12   5.2e-12   5.6e-12   6.2e-12   6.8e-12   7.9e-12
   5   2   1     3   2   1     4.8e-13   4.6e-13   4.9e-13   5.6e-13   6.5e-13   8.6e-13   1.1e-12   1.6e-12
   5   2   1     4   1   1     1.5e-11   1.5e-11   1.5e-11   1.6e-11   1.7e-11   1.9e-11   2.2e-11   2.7e-11
   5   2   1     4   1   0     4.4e-12   3.7e-12   2.5e-12   2.1e-12   2.0e-12   2.2e-12   2.6e-12   3.7e-12
   5   2   1     4   2   1     2.5e-12   2.4e-12   2.3e-12   2.3e-12   2.3e-12   2.5e-12   2.7e-12   3.2e-12
   5   2   1     4   2   0     3.6e-11   3.6e-11   3.8e-11   4.0e-11   4.4e-11   5.0e-11   5.6e-11   6.8e-11
   5   2   1     4   4   1     2.9e-13   2.8e-13   2.9e-13   3.3e-13   3.9e-13   5.4e-13   7.3e-13   1.2e-12
   5   2   1     4   4   0     2.9e-13   2.8e-13   3.0e-13   3.5e-13   4.4e-13   6.8e-13   1.0e-12   2.0e-12
   5   2   1     5   1   0     1.1e-13   1.5e-13   2.0e-13   2.6e-13   3.3e-13   5.1e-13   7.2e-13   1.2e-12
   5   2   1     5   1   1     3.9e-12   6.0e-12   9.0e-12   1.1e-11   1.4e-11   1.8e-11   2.2e-11   3.1e-11
   5   2   1     5   2   0     2.9e-11   2.9e-11   2.9e-11   3.0e-11   3.1e-11   3.4e-11   3.7e-11   4.4e-11
   5   2   1     5   4   0     3.5e-13   3.1e-13   2.5e-13   2.5e-13   2.8e-13   4.2e-13   6.3e-13   1.3e-12
   5   2   1     5   4   1     1.4e-12   1.2e-12   9.4e-13   9.0e-13   9.6e-13   1.2e-12   1.7e-12   2.7e-12
   5   2   1     5   5   0     1.9e-12   1.9e-12   2.1e-12   2.4e-12   2.7e-12   3.6e-12   4.6e-12   6.8e-12
   5   2   1     5   5   1     2.5e-12   2.4e-12   2.5e-12   2.7e-12   3.0e-12   3.5e-12   4.0e-12   5.1e-12
   5   4   0     1   1   0     1.5e-13   1.4e-13   1.2e-13   1.3e-13   1.4e-13   1.8e-13   2.3e-13   3.7e-13
   5   4   0     1   1   1     4.2e-12   4.2e-12   4.4e-12   4.8e-12   5.4e-12   6.8e-12   8.3e-12   1.1e-11
   5   4   0     2   1   1     1.2e-12   1.2e-12   1.2e-12   1.3e-12   1.5e-12   1.9e-12   2.4e-12   3.5e-12
   5   4   0     2   1   0     8.1e-12   8.3e-12   8.5e-12   9.0e-12   9.6e-12   1.1e-11   1.2e-11   1.5e-11
   5   4   0     2   2   1     3.4e-13   3.5e-13   4.0e-13   4.8e-13   5.8e-13   8.7e-13   1.3e-12   2.2e-12
   5   4   0     2   2   0     4.7e-13   4.8e-13   5.2e-13   5.8e-13   6.6e-13   8.4e-13   1.1e-12   1.5e-12
   5   4   0     3   1   0     1.7e-11   1.7e-11   1.7e-11   1.8e-11   1.9e-11   2.1e-11   2.3e-11   2.7e-11
   5   4   0     3   1   1     1.9e-12   1.8e-12   1.7e-12   1.7e-12   1.7e-12   1.9e-12   2.1e-12   2.7e-12
   5   4   0     3   2   0     8.4e-13   8.8e-13   9.7e-13   1.1e-12   1.3e-12   1.7e-12   2.2e-12   3.4e-12
   5   4   0     3   2   1     8.7e-14   1.1e-13   1.3e-13   1.3e-13   1.4e-13   1.7e-13   2.2e-13   3.8e-13
   5   4   0     4   1   1     3.7e-12   4.2e-12   4.5e-12   4.7e-12   4.9e-12   5.6e-12   6.6e-12   8.9e-12
   5   4   0     4   1   0     1.3e-11   1.3e-11   1.3e-11   1.3e-11   1.4e-11   1.6e-11   1.8e-11   2.1e-11
   5   4   0     4   2   1     1.5e-13   2.4e-13   2.8e-13   2.6e-13   2.4e-13   2.4e-13   2.7e-13   4.3e-13
   5   4   0     4   2   0     6.8e-13   8.5e-13   1.0e-12   1.1e-12   1.3e-12   1.6e-12   2.1e-12   3.3e-12
   5   4   0     4   4   1     3.0e-11   3.0e-11   3.0e-11   3.1e-11   3.2e-11   3.6e-11   3.9e-11   4.6e-11
   5   4   0     4   4   0     6.3e-12   6.3e-12   6.0e-12   5.9e-12   6.0e-12   6.4e-12   6.9e-12   8.3e-12
   5   4   0     5   1   0     4.1e-14   3.2e-13   1.5e-12   2.7e-12   3.8e-12   5.7e-12   7.5e-12   1.1e-11
   5   4   0     5   1   1     1.6e-14   1.3e-13   6.5e-13   1.2e-12   1.9e-12   3.2e-12   4.7e-12   8.2e-12
   5   4   0     5   2   0     2.1e-14   9.8e-14   2.7e-13   3.9e-13   5.1e-13   8.2e-13   1.2e-12   2.2e-12
   5   4   0     5   2   1     5.4e-15   2.5e-14   7.1e-14   1.1e-13   1.5e-13   2.8e-13   4.6e-13   1.0e-12
   5   4   0     5   4   1     1.0e-10   9.8e-11   9.4e-11   9.3e-11   9.5e-11   1.0e-10   1.1e-10   1.2e-10
   5   4   0     5   5   0     2.8e-14   3.4e-14   4.2e-14   5.4e-14   7.0e-14   1.2e-13   1.9e-13   4.1e-13
   5   4   0     5   5   1     9.7e-15   1.4e-14   1.7e-14   2.1e-14   2.8e-14   5.4e-14   1.0e-13   2.8e-13
   5   4   1     1   1   0     4.2e-12   4.2e-12   4.4e-12   4.8e-12   5.4e-12   6.8e-12   8.3e-12   1.1e-11
   5   4   1     1   1   1     1.5e-13   1.4e-13   1.2e-13   1.3e-13   1.4e-13   1.8e-13   2.3e-13   3.7e-13
   5   4   1     2   1   1     8.1e-12   8.3e-12   8.5e-12   9.0e-12   9.6e-12   1.1e-11   1.2e-11   1.5e-11
   5   4   1     2   1   0     1.2e-12   1.2e-12   1.2e-12   1.3e-12   1.5e-12   1.9e-12   2.4e-12   3.5e-12
   5   4   1     2   2   1     4.7e-13   4.8e-13   5.2e-13   5.8e-13   6.6e-13   8.4e-13   1.1e-12   1.5e-12
   5   4   1     2   2   0     3.4e-13   3.5e-13   4.0e-13   4.8e-13   5.8e-13   8.7e-13   1.3e-12   2.2e-12
   5   4   1     3   1   0     1.9e-12   1.8e-12   1.7e-12   1.7e-12   1.7e-12   1.9e-12   2.1e-12   2.7e-12
   5   4   1     3   1   1     1.7e-11   1.7e-11   1.7e-11   1.8e-11   1.9e-11   2.1e-11   2.3e-11   2.7e-11
   5   4   1     3   2   0     8.7e-14   1.1e-13   1.3e-13   1.3e-13   1.4e-13   1.7e-13   2.2e-13   3.8e-13
   5   4   1     3   2   1     8.4e-13   8.8e-13   9.7e-13   1.1e-12   1.3e-12   1.7e-12   2.2e-12   3.4e-12
   5   4   1     4   1   1     1.3e-11   1.3e-11   1.3e-11   1.3e-11   1.4e-11   1.6e-11   1.8e-11   2.1e-11
   5   4   1     4   1   0     3.7e-12   4.2e-12   4.5e-12   4.7e-12   4.9e-12   5.6e-12   6.6e-12   8.9e-12
   5   4   1     4   2   1     6.8e-13   8.5e-13   1.0e-12   1.1e-12   1.3e-12   1.6e-12   2.1e-12   3.3e-12
   5   4   1     4   2   0     1.5e-13   2.4e-13   2.8e-13   2.6e-13   2.4e-13   2.4e-13   2.7e-13   4.3e-13
   5   4   1     4   4   1     6.3e-12   6.3e-12   6.0e-12   5.9e-12   6.0e-12   6.4e-12   6.9e-12   8.3e-12
   5   4   1     4   4   0     3.0e-11   3.0e-11   3.0e-11   3.1e-11   3.2e-11   3.6e-11   3.9e-11   4.6e-11
   5   4   1     5   1   0     1.6e-14   1.3e-13   6.5e-13   1.2e-12   1.9e-12   3.2e-12   4.7e-12   8.2e-12
   5   4   1     5   1   1     4.1e-14   3.2e-13   1.5e-12   2.7e-12   3.8e-12   5.7e-12   7.5e-12   1.1e-11
   5   4   1     5   2   0     5.4e-15   2.5e-14   7.1e-14   1.1e-13   1.5e-13   2.8e-13   4.6e-13   1.0e-12
   5   4   1     5   2   1     2.1e-14   9.8e-14   2.7e-13   3.9e-13   5.1e-13   8.2e-13   1.2e-12   2.2e-12
   5   4   1     5   4   0     1.0e-10   9.8e-11   9.4e-11   9.3e-11   9.5e-11   1.0e-10   1.1e-10   1.2e-10
   5   4   1     5   5   0     9.7e-15   1.4e-14   1.7e-14   2.1e-14   2.8e-14   5.4e-14   1.0e-13   2.8e-13
   5   4   1     5   5   1     2.8e-14   3.4e-14   4.2e-14   5.4e-14   7.0e-14   1.2e-13   1.9e-13   4.1e-13
   5   5   0     1   1   0     1.1e-12   1.1e-12   1.1e-12   1.2e-12   1.4e-12   1.7e-12   2.1e-12   3.0e-12
   5   5   0     1   1   1     4.4e-14   3.6e-14   2.9e-14   2.7e-14   2.8e-14   3.2e-14   3.9e-14   5.9e-14
   5   5   0     2   1   1     2.1e-13   2.0e-13   2.2e-13   2.5e-13   2.9e-13   4.2e-13   5.8e-13   9.9e-13
   5   5   0     2   1   0     1.1e-12   1.1e-12   1.2e-12   1.3e-12   1.5e-12   1.9e-12   2.3e-12   3.2e-12
   5   5   0     2   2   1     2.9e-12   2.9e-12   2.9e-12   3.2e-12   3.5e-12   4.4e-12   5.3e-12   7.4e-12
   5   5   0     2   2   0     2.2e-11   2.2e-11   2.2e-11   2.3e-11   2.4e-11   2.7e-11   2.9e-11   3.4e-11
   5   5   0     3   1   0     7.0e-13   7.1e-13   7.7e-13   8.8e-13   1.0e-12   1.3e-12   1.7e-12   2.4e-12
   5   5   0     3   1   1     2.8e-13   2.8e-13   3.2e-13   3.8e-13   4.7e-13   7.0e-13   1.0e-12   1.8e-12
   5   5   0     3   2   0     1.7e-11   1.7e-11   1.6e-11   1.7e-11   1.8e-11   1.9e-11   2.1e-11   2.4e-11
   5   5   0     3   2   1     6.2e-12   6.1e-12   6.2e-12   6.8e-12   7.5e-12   9.4e-12   1.1e-11   1.6e-11
   5   5   0     4   1   1     1.4e-13   1.6e-13   2.2e-13   2.9e-13   3.7e-13   6.0e-13   9.2e-13   1.8e-12
   5   5   0     4   1   0     2.3e-13   2.4e-13   3.0e-13   3.6e-13   4.4e-13   6.2e-13   8.3e-13   1.3e-12
   5   5   0     4   2   1     2.7e-12   2.7e-12   3.1e-12   3.6e-12   4.2e-12   5.6e-12   7.3e-12   1.1e-11
   5   5   0     4   2   0     5.0e-12   5.1e-12   5.5e-12   6.0e-12   6.5e-12   7.6e-12   8.6e-12   1.0e-11
   5   5   0     4   4   1     4.1e-15   3.6e-15   3.5e-15   3.6e-15   3.8e-15   4.9e-15   7.0e-15   1.5e-14
   5   5   0     4   4   0     6.5e-14   6.8e-14   8.3e-14   1.1e-13   1.4e-13   2.2e-13   3.3e-13   6.3e-13
   5   5   0     5   1   0     4.4e-17   1.2e-15   1.7e-14   4.8e-14   8.8e-14   2.0e-13   3.4e-13   7.4e-13
   5   5   0     5   1   1     4.3e-17   1.2e-15   1.7e-14   5.1e-14   9.9e-14   2.4e-13   4.5e-13   1.1e-12
   5   5   0     5   2   0     1.6e-15   3.0e-14   2.8e-13   6.3e-13   9.8e-13   1.7e-12   2.3e-12   3.5e-12
   5   5   0     5   2   1     1.3e-15   2.4e-14   2.3e-13   5.5e-13   9.2e-13   1.7e-12   2.6e-12   4.7e-12
   5   5   0     5   4   0     1.2e-15   5.1e-15   1.7e-14   2.9e-14   4.4e-14   8.7e-14   1.5e-13   3.5e-13
   5   5   0     5   4   1     4.2e-16   2.1e-15   6.8e-15   1.1e-14   1.7e-14   3.9e-14   8.0e-14   2.4e-13
   5   5   0     5   5   1     1.4e-10   1.4e-10   1.4e-10   1.4e-10   1.5e-10   1.6e-10   1.7e-10   1.9e-10
   5   5   1     1   1   0     4.4e-14   3.6e-14   2.9e-14   2.7e-14   2.8e-14   3.2e-14   3.9e-14   5.9e-14
   5   5   1     1   1   1     1.1e-12   1.1e-12   1.1e-12   1.2e-12   1.4e-12   1.7e-12   2.1e-12   3.0e-12
   5   5   1     2   1   1     1.1e-12   1.1e-12   1.2e-12   1.3e-12   1.5e-12   1.9e-12   2.3e-12   3.2e-12
   5   5   1     2   1   0     2.1e-13   2.0e-13   2.2e-13   2.5e-13   2.9e-13   4.2e-13   5.8e-13   9.9e-13
   5   5   1     2   2   1     2.2e-11   2.2e-11   2.2e-11   2.3e-11   2.4e-11   2.7e-11   2.9e-11   3.4e-11
   5   5   1     2   2   0     2.9e-12   2.9e-12   2.9e-12   3.2e-12   3.5e-12   4.4e-12   5.3e-12   7.4e-12
   5   5   1     3   1   0     2.8e-13   2.8e-13   3.2e-13   3.8e-13   4.7e-13   7.0e-13   1.0e-12   1.8e-12
   5   5   1     3   1   1     7.0e-13   7.1e-13   7.7e-13   8.8e-13   1.0e-12   1.3e-12   1.7e-12   2.4e-12
   5   5   1     3   2   0     6.2e-12   6.1e-12   6.2e-12   6.8e-12   7.5e-12   9.4e-12   1.1e-11   1.6e-11
   5   5   1     3   2   1     1.7e-11   1.7e-11   1.6e-11   1.7e-11   1.8e-11   1.9e-11   2.1e-11   2.4e-11
   5   5   1     4   1   1     2.3e-13   2.4e-13   3.0e-13   3.6e-13   4.4e-13   6.2e-13   8.3e-13   1.3e-12
   5   5   1     4   1   0     1.4e-13   1.6e-13   2.2e-13   2.9e-13   3.7e-13   6.0e-13   9.2e-13   1.8e-12
   5   5   1     4   2   1     5.0e-12   5.1e-12   5.5e-12   6.0e-12   6.5e-12   7.6e-12   8.6e-12   1.0e-11
   5   5   1     4   2   0     2.7e-12   2.7e-12   3.1e-12   3.6e-12   4.2e-12   5.6e-12   7.3e-12   1.1e-11
   5   5   1     4   4   1     6.5e-14   6.8e-14   8.3e-14   1.1e-13   1.4e-13   2.2e-13   3.3e-13   6.3e-13
   5   5   1     4   4   0     4.1e-15   3.6e-15   3.5e-15   3.6e-15   3.8e-15   4.9e-15   7.0e-15   1.5e-14
   5   5   1     5   1   0     4.3e-17   1.2e-15   1.7e-14   5.1e-14   9.9e-14   2.4e-13   4.5e-13   1.1e-12
   5   5   1     5   1   1     4.4e-17   1.2e-15   1.7e-14   4.8e-14   8.8e-14   2.0e-13   3.4e-13   7.4e-13
   5   5   1     5   2   0     1.3e-15   2.4e-14   2.3e-13   5.5e-13   9.2e-13   1.7e-12   2.6e-12   4.7e-12
   5   5   1     5   2   1     1.6e-15   3.0e-14   2.8e-13   6.3e-13   9.8e-13   1.7e-12   2.3e-12   3.5e-12
   5   5   1     5   4   0     4.2e-16   2.1e-15   6.8e-15   1.1e-14   1.7e-14   3.9e-14   8.0e-14   2.4e-13
   5   5   1     5   4   1     1.2e-15   5.1e-15   1.7e-14   2.9e-14   4.4e-14   8.7e-14   1.5e-13   3.5e-13
   5   5   1     5   5   0     1.4e-10   1.4e-10   1.4e-10   1.4e-10   1.5e-10   1.6e-10   1.7e-10   1.9e-10
