8
15. 25. 50. 75. 100. 150. 200. 300.
   0   0   1    1   0   0    1.9e-11   4.3e-11   8.0e-11   9.9e-11   1.1e-10   1.3e-10   1.5e-10   1.7e-10
   0   0   1    2   0   1    3.4e-13   2.8e-12   1.2e-11   1.8e-11   2.1e-11   2.5e-11   2.8e-11   3.1e-11
   0   0   1    3   0   0    3.3e-16   3.1e-14   9.0e-13   2.7e-12   4.8e-12   8.7e-12   1.2e-11   1.6e-11
   0   0   1    3   3   0    1.5e-15   3.2e-14   2.2e-13   3.3e-13   3.7e-13   3.6e-13   3.2e-13   2.8e-13
   0   0   1    3   3   1    3.5e-14   9.5e-13   1.1e-11   2.6e-11   3.9e-11   6.2e-11   7.9e-11   1.0e-10
   0   0   1    4   0   1    5.5e-21   1.2e-17   4.4e-15   3.4e-14   1.0e-13   3.6e-13   7.3e-13   1.7e-12
   0   0   1    4   3   1    8.0e-20   3.1e-17   1.9e-15   6.3e-15   1.1e-14   1.6e-14   2.0e-14   2.5e-14
   0   0   1    4   3   0    4.6e-18   2.7e-15   3.3e-13   1.8e-12   4.4e-12   1.2e-11   2.1e-11   4.2e-11
   0   0   1    5   0   0    1.8e-25   1.8e-20   1.1e-16   2.4e-15   1.2e-14   8.1e-14   2.4e-13   9.2e-13
   0   0   1    5   3   0    2.9e-24   6.2e-20   7.5e-17   6.6e-16   1.8e-15   4.3e-15   6.3e-15   8.7e-15
   0   0   1    5   3   1    2.3e-23   6.0e-19   1.3e-15   1.9e-14   7.7e-14   3.5e-13   8.3e-13   2.3e-12
   0   0   1    6   0   1    4.9e-31   4.7e-24   9.4e-19   6.6e-17   6.3e-16   7.4e-15   3.1e-14   1.7e-13
   0   0   1    6   3   1    2.9e-30   6.6e-24   3.1e-19   1.1e-17   6.9e-17   5.1e-16   1.6e-15   6.4e-15
   0   0   1    6   3   0    8.4e-29   2.3e-22   1.7e-17   8.0e-16   5.9e-15   5.0e-14   1.6e-13   6.0e-13
   0   0   1    6   6   1    1.0e-23   6.0e-19   2.4e-15   4.2e-14   1.9e-13   9.1e-13   2.2e-12   6.0e-12
   0   0   1    6   6   0    2.2e-25   9.3e-21   2.1e-17   2.5e-16   8.9e-16   3.5e-15   7.7e-15   2.0e-14
   1   0   0    0   0   1    4.3e-11   4.5e-11   4.7e-11   4.8e-11   5.0e-11   5.3e-11   5.7e-11   6.2e-11
   1   0   0    2   0   1    2.5e-12   1.1e-11   3.2e-11   4.7e-11   5.8e-11   7.6e-11   8.9e-11   1.1e-10
   1   0   0    3   0   0    1.2e-15   5.7e-14   9.8e-13   2.5e-12   4.0e-12   6.5e-12   8.6e-12   1.2e-11
   1   0   0    3   3   0    1.7e-13   2.1e-12   1.4e-11   2.7e-11   3.8e-11   5.6e-11   6.8e-11   8.4e-11
   1   0   0    3   3   1    1.6e-14   1.9e-13   1.3e-12   2.5e-12   3.6e-12   5.9e-12   8.2e-12   1.3e-11
   1   0   0    4   0   1    3.8e-19   3.8e-16   6.8e-14   3.9e-13   9.6e-13   2.4e-12   3.9e-12   6.6e-12
   1   0   0    4   3   1    1.3e-17   3.6e-15   2.5e-13   1.1e-12   2.5e-12   6.3e-12   1.1e-11   2.1e-11
   1   0   0    4   3   0    2.3e-17   6.4e-15   4.4e-13   1.8e-12   3.8e-12   8.1e-12   1.2e-11   1.8e-11
   1   0   0    5   0   0    1.6e-24   7.2e-20   2.5e-16   4.3e-15   1.9e-14   9.8e-14   2.5e-13   7.0e-13
   1   0   0    5   3   0    6.5e-23   7.3e-19   8.1e-16   9.0e-15   3.2e-14   1.3e-13   3.0e-13   7.9e-13
   1   0   0    5   3   1    7.2e-22   9.0e-18   1.1e-14   1.3e-13   4.9e-13   2.0e-12   4.3e-12   1.0e-11
   1   0   0    6   0   1    9.2e-30   4.0e-23   4.3e-18   2.4e-16   2.0e-15   2.1e-14   8.0e-14   3.8e-13
   1   0   0    6   3   1    1.3e-28   1.6e-22   6.2e-18   2.4e-16   1.6e-15   1.2e-14   4.0e-14   1.5e-13
   1   0   0    6   3   0    4.3e-28   5.5e-22   2.4e-17   9.6e-16   6.8e-15   5.8e-14   1.9e-13   7.9e-13
   1   0   0    6   6   1    6.2e-24   1.6e-19   3.3e-16   4.7e-15   1.9e-14   9.5e-14   2.4e-13   7.3e-13
   1   0   0    6   6   0    5.8e-23   1.6e-18   3.7e-15   5.2e-14   2.1e-13   9.3e-13   2.2e-12   5.6e-12
   2   0   1    0   0   1    2.1e-11   1.7e-11   1.3e-11   1.1e-11   1.0e-11   9.0e-12   8.5e-12   8.1e-12
   2   0   1    1   0   0    6.8e-11   6.4e-11   6.0e-11   6.0e-11   6.2e-11   6.7e-11   7.1e-11   7.9e-11
   2   0   1    3   0   0    2.6e-13   2.6e-12   1.4e-11   2.6e-11   3.6e-11   5.2e-11   6.5e-11   8.4e-11
   2   0   1    3   3   0    1.2e-12   3.0e-12   5.8e-12   7.6e-12   9.4e-12   1.3e-11   1.7e-11   2.5e-11
   2   0   1    3   3   1    3.2e-12   9.0e-12   2.0e-11   2.8e-11   3.3e-11   4.1e-11   4.7e-11   5.5e-11
   2   0   1    4   0   1    7.9e-18   1.8e-15   1.2e-13   4.8e-13   9.9e-13   2.2e-12   3.4e-12   5.9e-12
   2   0   1    4   3   1    2.0e-15   1.2e-13   2.5e-12   7.3e-12   1.2e-11   2.2e-11   3.0e-11   4.2e-11
   2   0   1    4   3   0    8.9e-17   4.6e-15   9.1e-14   2.6e-13   4.5e-13   8.7e-13   1.3e-12   2.3e-12
   2   0   1    5   0   0    6.2e-22   6.1e-18   6.3e-15   6.8e-14   2.3e-13   8.1e-13   1.6e-12   3.2e-12
   2   0   1    5   3   0    3.6e-20   9.7e-17   3.9e-14   3.1e-13   9.5e-13   3.2e-12   6.5e-12   1.4e-11
   2   0   1    5   3   1    2.8e-20   7.7e-17   3.0e-14   2.3e-13   6.5e-13   1.9e-12   3.4e-12   6.2e-12
   2   0   1    6   0   1    5.3e-28   5.2e-22   1.8e-17   6.5e-16   4.3e-15   3.2e-14   9.9e-14   3.5e-13
   2   0   1    6   3   1    1.4e-26   3.8e-21   5.0e-17   1.3e-15   7.7e-15   5.4e-14   1.6e-13   6.1e-13
   2   0   1    6   3   0    1.5e-25   4.0e-20   5.2e-16   1.4e-14   7.6e-14   4.8e-13   1.3e-12   4.1e-12
   2   0   1    6   6   1    1.8e-21   1.1e-17   7.9e-15   7.7e-14   2.6e-13   9.5e-13   2.0e-12   4.6e-12
   2   0   1    6   6   0    4.5e-22   2.6e-18   1.9e-15   1.9e-14   6.7e-14   2.8e-13   6.6e-13   1.9e-12
   3   0   0    0   0   1    4.4e-12   4.2e-12   4.0e-12   3.9e-12   3.9e-12   3.9e-12   4.0e-12   4.1e-12
   3   0   0    1   0   0    7.4e-12   7.5e-12   7.3e-12   7.2e-12   7.1e-12   7.3e-12   7.6e-12   8.3e-12
   3   0   0    2   0   1    5.7e-11   5.7e-11   5.7e-11   5.8e-11   6.1e-11   6.6e-11   7.1e-11   8.0e-11
   3   0   0    3   3   0    2.0e-11   2.0e-11   2.0e-11   2.0e-11   2.1e-11   2.2e-11   2.4e-11   2.6e-11
   3   0   0    3   3   1    7.7e-12   8.4e-12   9.1e-12   1.0e-11   1.1e-11   1.4e-11   1.8e-11   2.5e-11
   3   0   0    4   0   1    3.2e-14   6.9e-13   7.0e-12   1.6e-11   2.4e-11   3.8e-11   5.0e-11   6.9e-11
   3   0   0    4   3   1    1.4e-13   7.0e-13   1.9e-12   2.4e-12   2.8e-12   3.4e-12   4.1e-12   5.6e-12
   3   0   0    4   3   0    4.7e-13   2.8e-12   1.1e-11   1.9e-11   2.5e-11   3.4e-11   4.0e-11   5.0e-11
   3   0   0    5   0   0    4.9e-20   5.2e-17   1.1e-14   7.6e-14   2.1e-13   6.8e-13   1.3e-12   3.0e-12
   3   0   0    5   3   0    2.7e-17   7.4e-15   5.2e-13   2.2e-12   4.6e-12   1.0e-11   1.6e-11   2.5e-11
   3   0   0    5   3   1    3.0e-18   8.0e-16   5.6e-14   2.6e-13   5.9e-13   1.5e-12   2.7e-12   5.3e-12
   3   0   0    6   0   1    1.0e-24   1.0e-19   6.0e-16   1.2e-14   5.7e-14   3.0e-13   7.5e-13   2.1e-12
   3   0   0    6   3   1    8.3e-23   2.3e-18   5.3e-15   7.7e-14   3.2e-13   1.5e-12   3.6e-12   9.7e-12
   3   0   0    6   3   0    3.8e-23   1.0e-18   2.4e-15   3.4e-14   1.4e-13   5.8e-13   1.3e-12   3.0e-12
   3   0   0    6   6   1    1.3e-19   7.9e-17   1.1e-14   6.3e-14   1.7e-13   5.5e-13   1.1e-12   2.9e-12
   3   0   0    6   6   0    3.0e-19   1.8e-16   2.4e-14   1.3e-13   3.3e-13   9.4e-13   1.7e-12   3.5e-12
   3   3   0    0   0   1    8.9e-13   6.6e-13   3.7e-13   2.5e-13   1.8e-13   1.2e-13   8.6e-14   6.0e-14
   3   3   0    1   0   0    4.4e-11   4.3e-11   4.2e-11   4.2e-11   4.3e-11   4.5e-11   4.7e-11   5.0e-11
   3   3   0    2   0   1    1.1e-11   1.0e-11   9.0e-12   9.1e-12   9.9e-12   1.2e-11   1.5e-11   2.0e-11
   3   3   0    3   0   0    8.8e-13   3.1e-12   7.7e-12   1.1e-11   1.3e-11   1.6e-11   1.9e-11   2.2e-11
   3   3   0    3   3   1    1.2e-10   1.2e-10   1.2e-10   1.2e-10   1.2e-10   1.3e-10   1.4e-10   1.5e-10
   3   3   0    4   0   1    1.3e-16   1.0e-14   3.0e-13   1.0e-12   1.9e-12   4.1e-12   6.4e-12   1.1e-11
   3   3   0    4   3   1    1.9e-14   4.1e-13   4.1e-12   9.1e-12   1.4e-11   2.3e-11   3.0e-11   4.2e-11
   3   3   0    4   3   0    6.6e-15   1.4e-13   1.5e-12   3.2e-12   4.8e-12   7.3e-12   9.2e-12   1.2e-11
   3   3   0    5   0   0    2.3e-21   7.9e-18   3.8e-15   3.2e-14   9.8e-14   3.3e-13   6.4e-13   1.4e-12
   3   3   0    5   3   0    1.4e-19   1.1e-16   1.7e-14   9.6e-14   2.4e-13   7.0e-13   1.3e-12   2.8e-12
   3   3   0    5   3   1    3.0e-19   2.8e-16   4.8e-14   2.7e-13   6.8e-13   1.8e-12   3.0e-12   5.6e-12
   3   3   0    6   0   1    9.8e-27   3.3e-21   5.2e-17   1.5e-15   8.7e-15   5.9e-14   1.7e-13   5.9e-13
   3   3   0    6   3   1    4.8e-25   4.7e-20   2.8e-16   5.7e-15   2.8e-14   1.6e-13   4.2e-13   1.3e-12
   3   3   0    6   3   0    2.6e-25   2.5e-20   1.5e-16   2.9e-15   1.4e-14   7.9e-14   2.1e-13   6.7e-13
   3   3   0    6   6   1    3.2e-20   6.6e-17   2.2e-14   1.6e-13   4.8e-13   1.6e-12   3.2e-12   7.2e-12
   3   3   0    6   6   0    1.7e-19   3.7e-16   1.2e-13   8.7e-13   2.4e-12   7.2e-12   1.3e-11   2.5e-11
   3   3   1    0   0   1    2.0e-11   2.0e-11   1.9e-11   1.9e-11   2.0e-11   2.0e-11   2.1e-11   2.2e-11
   3   3   1    1   0   0    4.2e-12   3.9e-12   3.7e-12   3.8e-12   4.1e-12   4.8e-12   5.7e-12   7.5e-12
   3   3   1    2   0   1    3.0e-11   3.0e-11   3.1e-11   3.3e-11   3.5e-11   3.8e-11   4.1e-11   4.4e-11
   3   3   1    3   0   0    3.3e-13   1.3e-12   3.5e-12   5.3e-12   7.0e-12   1.0e-11   1.4e-11   2.1e-11
   3   3   1    3   3   0    1.2e-10   1.2e-10   1.2e-10   1.2e-10   1.2e-10   1.3e-10   1.4e-10   1.5e-10
   3   3   1    4   0   1    1.6e-16   1.2e-14   3.2e-13   9.6e-13   1.7e-12   3.1e-12   4.4e-12   6.5e-12
   3   3   1    4   3   1    7.1e-15   1.5e-13   1.5e-12   3.3e-12   4.9e-12   7.4e-12   9.4e-12   1.2e-11
   3   3   1    4   3   0    1.9e-14   4.1e-13   4.1e-12   9.1e-12   1.4e-11   2.2e-11   3.0e-11   4.2e-11
   3   3   1    5   0   0    4.1e-21   1.4e-17   6.8e-15   5.9e-14   1.9e-13   6.6e-13   1.4e-12   3.2e-12
   3   3   1    5   3   0    3.2e-19   3.0e-16   5.0e-14   2.9e-13   7.1e-13   1.8e-12   3.1e-12   5.8e-12
   3   3   1    5   3   1    1.3e-19   1.0e-16   1.5e-14   8.5e-14   2.1e-13   6.2e-13   1.2e-12   2.5e-12
   3   3   1    6   0   1    4.8e-27   1.7e-21   2.7e-17   7.9e-16   4.7e-15   3.4e-14   1.0e-13   3.9e-13
   3   3   1    6   3   1    3.7e-25   3.5e-20   2.1e-16   4.1e-15   2.0e-14   1.1e-13   2.8e-13   8.4e-13
   3   3   1    6   3   0    3.9e-25   3.8e-20   2.4e-16   4.9e-15   2.4e-14   1.4e-13   3.7e-13   1.2e-12
   3   3   1    6   6   1    1.7e-19   3.7e-16   1.2e-13   8.8e-13   2.4e-12   7.2e-12   1.3e-11   2.5e-11
   3   3   1    6   6   0    3.2e-20   6.6e-17   2.2e-14   1.6e-13   4.9e-13   1.6e-12   3.2e-12   7.2e-12
   4   0   1    0   0   1    1.2e-13   1.3e-13   1.5e-13   1.7e-13   2.0e-13   2.7e-13   3.4e-13   4.9e-13
   4   0   1    1   0   0    3.6e-12   3.7e-12   3.9e-12   4.1e-12   4.2e-12   4.5e-12   4.7e-12   5.2e-12
   4   0   1    2   0   1    2.8e-12   3.1e-12   3.6e-12   3.8e-12   4.1e-12   4.6e-12   5.2e-12   6.4e-12
   4   0   1    3   0   0    5.2e-11   5.2e-11   5.3e-11   5.6e-11   5.8e-11   6.4e-11   6.9e-11   7.9e-11
   4   0   1    3   3   0    5.0e-12   5.2e-12   6.0e-12   6.7e-12   7.5e-12   9.3e-12   1.1e-11   1.5e-11
   4   0   1    3   3   1    5.9e-12   6.0e-12   6.2e-12   6.4e-12   6.7e-12   7.2e-12   7.7e-12   8.7e-12
   4   0   1    4   3   1    2.2e-11   2.2e-11   2.3e-11   2.4e-11   2.5e-11   2.8e-11   3.0e-11   3.4e-11
   4   0   1    4   3   0    4.6e-12   5.8e-12   7.9e-12   8.8e-12   9.5e-12   1.1e-11   1.3e-11   1.8e-11
   4   0   1    5   0   0    4.1e-15   1.9e-13   3.4e-12   9.3e-12   1.6e-11   2.9e-11   4.1e-11   6.1e-11
   4   0   1    5   3   0    1.6e-14   1.8e-13   7.5e-13   1.0e-12   1.2e-12   1.3e-12   1.4e-12   1.7e-12
   4   0   1    5   3   1    6.7e-14   8.7e-13   6.1e-12   1.2e-11   1.7e-11   2.7e-11   3.4e-11   4.5e-11
   4   0   1    6   0   1    4.0e-22   1.9e-18   1.2e-15   1.1e-14   4.0e-14   1.6e-13   3.8e-13   1.0e-12
   4   0   1    6   3   1    3.7e-19   4.8e-16   1.1e-13   7.3e-13   1.9e-12   5.6e-12   1.0e-11   1.9e-11
   4   0   1    6   3   0    8.1e-20   1.0e-16   2.4e-14   1.6e-13   4.6e-13   1.5e-12   2.9e-12   6.5e-12
   4   0   1    6   6   1    2.3e-16   6.6e-15   9.0e-14   2.4e-13   4.3e-13   8.7e-13   1.4e-12   2.5e-12
   4   0   1    6   6   0    1.7e-16   4.8e-15   6.7e-14   1.9e-13   3.6e-13   8.3e-13   1.5e-12   3.3e-12
   4   3   1    0   0   1    7.4e-14   4.9e-14   2.5e-14   1.7e-14   1.3e-14   9.0e-15   7.2e-15   6.1e-15
   4   3   1    1   0   0    5.4e-12   5.4e-12   5.6e-12   6.1e-12   6.8e-12   8.5e-12   1.0e-11   1.4e-11
   4   3   1    2   0   1    3.0e-11   3.0e-11   3.0e-11   3.1e-11   3.2e-11   3.4e-11   3.6e-11   3.9e-11
   4   3   1    3   0   0    9.4e-12   8.0e-12   5.6e-12   4.7e-12   4.3e-12   4.2e-12   4.5e-12   5.4e-12
   4   3   1    3   3   0    3.1e-11   3.1e-11   3.2e-11   3.3e-11   3.4e-11   3.8e-11   4.1e-11   4.8e-11
   4   3   1    3   3   1    1.1e-11   1.1e-11   1.2e-11   1.2e-11   1.2e-11   1.2e-11   1.3e-11   1.4e-11
   4   3   1    4   0   1    9.6e-13   3.3e-12   8.8e-12   1.3e-11   1.6e-11   2.0e-11   2.4e-11   2.9e-11
   4   3   1    4   3   0    7.7e-11   7.6e-11   7.4e-11   7.4e-11   7.5e-11   7.7e-11   8.1e-11   8.8e-11
   4   3   1    5   0   0    2.1e-17   3.3e-15   1.6e-13   6.6e-13   1.4e-12   3.5e-12   6.1e-12   1.2e-11
   4   3   1    5   3   0    2.8e-15   1.3e-13   2.3e-12   6.3e-12   1.1e-11   2.0e-11   2.8e-11   4.3e-11
   4   3   1    5   3   1    5.6e-16   2.6e-14   4.5e-13   1.2e-12   1.9e-12   3.3e-12   4.6e-12   6.8e-12
   4   3   1    6   0   1    4.9e-23   7.9e-19   1.2e-15   1.5e-14   5.7e-14   2.4e-13   5.3e-13   1.3e-12
   4   3   1    6   3   1    1.1e-21   4.7e-18   2.6e-15   2.4e-14   7.9e-14   3.0e-13   6.6e-13   1.7e-12
   4   3   1    6   3   0    4.2e-21   1.9e-17   1.2e-14   1.1e-13   3.4e-13   1.2e-12   2.3e-12   4.9e-12
   4   3   1    6   6   1    2.0e-16   2.0e-14   6.4e-13   2.1e-12   3.9e-12   7.6e-12   1.1e-11   1.7e-11
   4   3   1    6   6   0    9.8e-17   9.7e-15   3.1e-13   1.1e-12   2.1e-12   4.7e-12   7.7e-12   1.4e-11
   4   3   0    0   0   1    4.2e-12   4.2e-12   4.4e-12   4.8e-12   5.3e-12   6.5e-12   7.8e-12   1.0e-11
   4   3   0    1   0   0    9.5e-12   9.7e-12   9.8e-12   1.0e-11   1.0e-11   1.1e-11   1.2e-11   1.2e-11
   4   3   0    2   0   1    1.3e-12   1.2e-12   1.1e-12   1.1e-12   1.2e-12   1.3e-12   1.6e-12   2.1e-12
   4   3   0    3   0   0    3.2e-11   3.3e-11   3.4e-11   3.6e-11   3.8e-11   4.1e-11   4.4e-11   4.9e-11
   4   3   0    3   3   0    1.1e-11   1.1e-11   1.1e-11   1.1e-11   1.2e-11   1.2e-11   1.3e-11   1.4e-11
   4   3   0    3   3   1    3.1e-11   3.1e-11   3.1e-11   3.2e-11   3.4e-11   3.7e-11   4.1e-11   4.8e-11
   4   3   0    4   0   1    2.0e-13   8.8e-13   3.1e-12   4.7e-12   5.9e-12   8.2e-12   1.1e-11   1.6e-11
   4   3   0    4   3   1    7.7e-11   7.6e-11   7.4e-11   7.4e-11   7.5e-11   7.7e-11   8.1e-11   8.8e-11
   4   3   0    5   0   0    3.2e-17   5.2e-15   2.4e-13   8.9e-13   1.7e-12   3.6e-12   5.3e-12   8.3e-12
   4   3   0    5   3   0    5.7e-16   2.5e-14   4.1e-13   1.0e-12   1.6e-12   2.7e-12   3.6e-12   5.2e-12
   4   3   0    5   3   1    2.7e-15   1.2e-13   2.3e-12   6.2e-12   1.1e-11   2.0e-11   2.8e-11   4.2e-11
   4   3   0    6   0   1    1.2e-22   1.9e-18   2.9e-15   3.8e-14   1.5e-13   6.5e-13   1.5e-12   4.0e-12
   4   3   0    6   3   1    4.9e-21   2.2e-17   1.3e-14   1.2e-13   3.6e-13   1.2e-12   2.3e-12   4.9e-12
   4   3   0    6   3   0    1.4e-21   6.1e-18   3.6e-15   3.4e-14   1.1e-13   4.1e-13   8.7e-13   2.1e-12
   4   3   0    6   6   1    9.9e-17   9.7e-15   3.2e-13   1.1e-12   2.2e-12   4.7e-12   7.7e-12   1.4e-11
   4   3   0    6   6   0    2.0e-16   2.0e-14   6.4e-13   2.1e-12   3.9e-12   7.6e-12   1.1e-11   1.7e-11
   5   0   0    0   0   1    4.4e-14   4.6e-14   5.4e-14   6.6e-14   8.3e-14   1.3e-13   1.9e-13   3.5e-13
   5   0   0    1   0   0    1.7e-13   1.8e-13   2.1e-13   2.4e-13   2.9e-13   3.9e-13   5.0e-13   7.3e-13
   5   0   0    2   0   1    2.4e-12   2.5e-12   2.8e-12   3.0e-12   3.2e-12   3.6e-12   4.0e-12   4.6e-12
   5   0   0    3   0   0    8.9e-13   9.8e-13   1.2e-12   1.5e-12   1.8e-12   2.4e-12   3.1e-12   4.5e-12
   5   0   0    3   3   0    9.6e-13   9.8e-13   1.1e-12   1.2e-12   1.3e-12   1.6e-12   1.9e-12   2.5e-12
   5   0   0    3   3   1    1.7e-12   1.7e-12   1.9e-12   2.2e-12   2.5e-12   3.2e-12   4.0e-12   5.6e-12
   5   0   0    4   0   1    4.6e-11   4.7e-11   4.8e-11   5.1e-11   5.5e-11   6.1e-11   6.8e-11   8.0e-11
   5   0   0    4   3   1    5.4e-12   5.5e-12   6.0e-12   6.8e-12   7.9e-12   1.0e-11   1.3e-11   1.8e-11
   5   0   0    4   3   0    8.5e-12   8.5e-12   8.8e-12   9.2e-12   9.6e-12   1.0e-11   1.1e-11   1.3e-11
   5   0   0    5   3   0    2.3e-11   2.3e-11   2.4e-11   2.6e-11   2.8e-11   3.1e-11   3.5e-11   4.0e-11
   5   0   0    5   3   1    3.1e-12   3.2e-12   3.8e-12   4.6e-12   5.4e-12   7.2e-12   9.2e-12   1.4e-11
   5   0   0    6   0   1    5.4e-16   5.4e-14   1.7e-12   5.9e-12   1.1e-11   2.3e-11   3.4e-11   5.4e-11
   5   0   0    6   3   1    2.5e-15   5.7e-14   4.6e-13   8.4e-13   1.2e-12   1.7e-12   2.3e-12   3.6e-12
   5   0   0    6   3   0    9.3e-15   2.6e-13   3.3e-12   8.0e-12   1.3e-11   2.2e-11   3.1e-11   4.5e-11
   5   0   0    6   6   1    2.1e-13   2.2e-13   3.0e-13   4.1e-13   5.5e-13   9.4e-13   1.5e-12   2.8e-12
   5   0   0    6   6   0    2.2e-13   2.3e-13   2.9e-13   3.7e-13   4.6e-13   6.8e-13   9.4e-13   1.6e-12
   5   3   0    0   0   1    3.0e-14   2.4e-14   1.4e-14   9.7e-15   7.4e-15   5.0e-15   3.9e-15   2.8e-15
   5   3   0    1   0   0    3.0e-13   2.7e-13   2.6e-13   2.7e-13   3.0e-13   3.8e-13   4.8e-13   7.0e-13
   5   3   0    2   0   1    6.1e-12   6.1e-12   6.6e-12   7.4e-12   8.4e-12   1.1e-11   1.3e-11   1.8e-11
   5   3   0    3   0   0    2.1e-11   2.1e-11   2.2e-11   2.3e-11   2.4e-11   2.7e-11   2.9e-11   3.2e-11
   5   3   0    3   3   0    2.5e-12   2.2e-12   1.9e-12   1.9e-12   2.0e-12   2.5e-12   3.0e-12   4.2e-12
   5   3   0    3   3   1    5.8e-12   5.6e-12   5.5e-12   5.7e-12   5.9e-12   6.5e-12   7.2e-12   8.7e-12
   5   3   0    4   0   1    8.0e-12   6.7e-12   4.2e-12   3.1e-12   2.5e-12   2.0e-12   1.9e-12   1.9e-12
   5   3   0    4   3   1    3.1e-11   3.1e-11   3.3e-11   3.5e-11   3.7e-11   4.2e-11   4.7e-11   5.6e-11
   5   3   0    4   3   0    6.4e-12   6.3e-12   5.8e-12   5.6e-12   5.6e-12   5.8e-12   6.1e-12   6.9e-12
   5   3   0    5   0   0    1.0e-12   3.5e-12   9.4e-12   1.4e-11   1.7e-11   2.3e-11   2.7e-11   3.4e-11
   5   3   0    5   3   1    5.4e-11   5.3e-11   5.3e-11   5.3e-11   5.4e-11   5.7e-11   6.0e-11   6.7e-11
   5   3   0    6   0   1    3.2e-18   1.1e-15   9.7e-14   4.7e-13   1.1e-12   3.1e-12   5.6e-12   1.2e-11
   5   3   0    6   3   1    3.5e-16   3.5e-14   1.2e-12   4.0e-12   7.6e-12   1.6e-11   2.4e-11   3.8e-11
   5   3   0    6   3   0    2.7e-17   2.7e-15   9.3e-14   3.2e-13   6.3e-13   1.3e-12   2.2e-12   3.9e-12
   5   3   0    6   6   1    4.0e-13   8.7e-13   1.7e-12   2.4e-12   3.2e-12   4.8e-12   6.5e-12   1.0e-11
   5   3   0    6   6   0    1.0e-12   2.0e-12   3.2e-12   3.9e-12   4.5e-12   5.6e-12   6.7e-12   8.6e-12
   5   3   1    0   0   1    2.4e-13   2.4e-13   2.5e-13   2.8e-13   3.2e-13   4.1e-13   5.1e-13   7.4e-13
   5   3   1    1   0   0    3.3e-12   3.4e-12   3.7e-12   4.1e-12   4.6e-12   5.7e-12   6.9e-12   9.2e-12
   5   3   1    2   0   1    4.8e-12   4.9e-12   5.1e-12   5.4e-12   5.7e-12   6.2e-12   6.7e-12   7.5e-12
   5   3   1    3   0   0    2.4e-12   2.3e-12   2.4e-12   2.7e-12   3.1e-12   3.9e-12   4.9e-12   6.8e-12
   5   3   1    3   3   0    5.4e-12   5.3e-12   5.2e-12   5.4e-12   5.7e-12   6.3e-12   7.0e-12   8.4e-12
   5   3   1    3   3   1    2.3e-12   1.9e-12   1.7e-12   1.7e-12   1.8e-12   2.2e-12   2.7e-12   3.7e-12
   5   3   1    4   0   1    3.3e-11   3.3e-11   3.4e-11   3.6e-11   3.7e-11   4.1e-11   4.5e-11   5.1e-11
   5   3   1    4   3   1    6.4e-12   6.4e-12   6.4e-12   6.4e-12   6.6e-12   7.1e-12   7.7e-12   9.0e-12
   5   3   1    4   3   0    3.1e-11   3.1e-11   3.2e-11   3.4e-11   3.7e-11   4.2e-11   4.7e-11   5.6e-11
   5   3   1    5   0   0    1.3e-13   4.8e-13   1.5e-12   2.4e-12   3.4e-12   5.3e-12   7.3e-12   1.2e-11
   5   3   1    5   3   0    5.4e-11   5.3e-11   5.3e-11   5.3e-11   5.4e-11   5.7e-11   6.0e-11   6.7e-11
   5   3   1    6   0   1    5.6e-18   1.9e-15   1.6e-13   7.4e-13   1.7e-12   4.0e-12   6.6e-12   1.2e-11
   5   3   1    6   3   1    3.6e-17   3.3e-15   9.1e-14   2.9e-13   5.3e-13   1.1e-12   1.8e-12   3.3e-12
   5   3   1    6   3   0    3.4e-16   3.5e-14   1.2e-12   4.0e-12   7.8e-12   1.6e-11   2.4e-11   4.0e-11
   5   3   1    6   6   1    5.6e-13   1.3e-12   2.5e-12   3.4e-12   4.1e-12   5.4e-12   6.5e-12   8.5e-12
   5   3   1    6   6   0    3.8e-13   8.4e-13   1.7e-12   2.4e-12   3.2e-12   4.8e-12   6.5e-12   1.0e-11
   6   0   1    0   0   1    9.3e-15   9.8e-15   1.2e-14   1.5e-14   2.0e-14   3.1e-14   4.8e-14   9.4e-14
   6   0   1    1   0   0    7.7e-14   8.0e-14   9.2e-14   1.1e-13   1.4e-13   2.2e-13   3.2e-13   6.0e-13
   6   0   1    2   0   1    1.7e-13   1.7e-13   2.0e-13   2.4e-13   2.8e-13   3.9e-13   5.0e-13   7.5e-13
   6   0   1    3   0   0    1.4e-12   1.5e-12   1.7e-12   2.0e-12   2.2e-12   2.8e-12   3.5e-12   4.7e-12
   6   0   1    3   3   0    3.2e-13   3.4e-13   3.9e-13   4.6e-13   5.5e-13   7.6e-13   1.0e-12   1.6e-12
   6   0   1    3   3   1    1.6e-13   1.7e-13   2.0e-13   2.4e-13   3.0e-13   4.4e-13   6.1e-13   1.0e-12
   6   0   1    4   0   1    3.6e-13   3.8e-13   4.4e-13   5.3e-13   6.4e-13   9.3e-13   1.3e-12   2.1e-12
   6   0   1    4   3   1    1.0e-12   1.0e-12   1.2e-12   1.3e-12   1.5e-12   1.8e-12   2.2e-12   3.1e-12
   6   0   1    4   3   0    2.4e-12   2.5e-12   2.8e-12   3.3e-12   3.8e-12   5.0e-12   6.4e-12   9.3e-12
   6   0   1    5   0   0    4.2e-11   4.3e-11   4.6e-11   4.9e-11   5.3e-11   6.0e-11   6.8e-11   8.2e-11
   6   0   1    5   3   0    5.9e-12   6.0e-12   6.5e-12   7.4e-12   8.5e-12   1.1e-11   1.4e-11   2.0e-11
   6   0   1    5   3   1    1.0e-11   1.0e-11   1.1e-11   1.2e-11   1.2e-11   1.5e-11   1.7e-11   2.1e-11
   6   0   1    6   3   1    2.3e-11   2.3e-11   2.5e-11   2.7e-11   3.0e-11   3.6e-11   4.2e-11   5.3e-11
   6   0   1    6   3   0    2.3e-12   2.4e-12   2.8e-12   3.3e-12   4.0e-12   5.6e-12   7.5e-12   1.2e-11
   6   0   1    6   6   1    1.8e-13   1.8e-13   2.1e-13   2.5e-13   3.0e-13   4.4e-13   6.3e-13   1.1e-12
   6   0   1    6   6   0    2.2e-13   2.3e-13   2.7e-13   3.4e-13   4.3e-13   6.7e-13   1.0e-12   1.9e-12
   6   3   1    0   0   1    2.4e-15   2.1e-15   1.5e-15   1.4e-15   1.4e-15   1.6e-15   2.0e-15   3.1e-15
   6   3   1    1   0   0    4.8e-14   4.8e-14   5.2e-14   6.0e-14   7.0e-14   9.5e-14   1.3e-13   2.0e-13
   6   3   1    2   0   1    1.9e-13   2.0e-13   2.2e-13   2.6e-13   3.2e-13   4.7e-13   6.6e-13   1.1e-12
   6   3   1    3   0   0    5.1e-12   5.3e-12   5.9e-12   6.8e-12   7.8e-12   1.0e-11   1.3e-11   1.9e-11
   6   3   1    3   3   0    6.8e-13   7.1e-13   8.1e-13   9.4e-13   1.1e-12   1.5e-12   1.9e-12   3.0e-12
   6   3   1    3   3   1    5.2e-13   5.4e-13   5.9e-13   6.8e-13   7.8e-13   1.0e-12   1.3e-12   1.9e-12
   6   3   1    4   0   1    1.4e-11   1.5e-11   1.6e-11   1.8e-11   1.9e-11   2.3e-11   2.6e-11   3.2e-11
   6   3   1    4   3   1    9.6e-13   9.6e-13   9.9e-13   1.1e-12   1.3e-12   1.7e-12   2.2e-12   3.3e-12
   6   3   1    4   3   0    4.4e-12   4.5e-12   4.9e-12   5.3e-12   5.8e-12   6.8e-12   7.8e-12   9.7e-12
   6   3   1    5   0   0    8.4e-12   7.1e-12   4.7e-12   3.8e-12   3.4e-12   3.3e-12   3.6e-12   4.6e-12
   6   3   1    5   3   0    2.7e-11   2.8e-11   3.0e-11   3.3e-11   3.6e-11   4.2e-11   4.7e-11   5.7e-11
   6   3   1    5   3   1    2.9e-12   2.7e-12   2.4e-12   2.4e-12   2.5e-12   2.9e-12   3.5e-12   5.0e-12
   6   3   1    6   0   1    1.0e-12   3.6e-12   9.7e-12   1.5e-11   1.9e-11   2.6e-11   3.3e-11   4.5e-11
   6   3   1    6   3   0    4.2e-11   4.2e-11   4.3e-11   4.4e-11   4.5e-11   4.9e-11   5.2e-11   5.9e-11
   6   3   1    6   6   1    1.6e-12   1.6e-12   1.7e-12   1.8e-12   2.0e-12   2.3e-12   2.7e-12   3.4e-12
   6   3   1    6   6   0    1.5e-12   1.5e-12   1.6e-12   1.8e-12   2.1e-12   2.7e-12   3.5e-12   5.1e-12
   6   3   0    0   0   1    6.9e-14   7.3e-14   8.4e-14   9.9e-14   1.2e-13   1.5e-13   2.0e-13   2.9e-13
   6   3   0    1   0   0    1.6e-13   1.7e-13   2.0e-13   2.4e-13   3.0e-13   4.4e-13   6.2e-13   1.0e-12
   6   3   0    2   0   1    2.0e-12   2.0e-12   2.3e-12   2.7e-12   3.2e-12   4.2e-12   5.3e-12   7.6e-12
   6   3   0    3   0   0    2.3e-12   2.4e-12   2.7e-12   3.0e-12   3.3e-12   4.0e-12   4.7e-12   5.8e-12
   6   3   0    3   3   0    3.7e-13   3.8e-13   4.2e-13   4.8e-13   5.6e-13   7.4e-13   9.6e-13   1.5e-12
   6   3   0    3   3   1    5.5e-13   5.8e-13   6.8e-13   8.0e-13   9.5e-13   1.3e-12   1.7e-12   2.7e-12
   6   3   0    4   0   1    3.1e-12   3.2e-12   3.5e-12   4.0e-12   4.6e-12   6.0e-12   7.6e-12   1.1e-11
   6   3   0    4   3   1    3.7e-12   3.9e-12   4.4e-12   4.9e-12   5.5e-12   6.5e-12   7.6e-12   9.7e-12
   6   3   0    4   3   0    1.2e-12   1.2e-12   1.4e-12   1.5e-12   1.8e-12   2.3e-12   2.9e-12   4.2e-12
   6   3   0    5   0   0    3.2e-11   3.2e-11   3.3e-11   3.5e-11   3.8e-11   4.3e-11   4.8e-11   5.8e-11
   6   3   0    5   3   0    2.1e-12   2.2e-12   2.4e-12   2.7e-12   2.9e-12   3.6e-12   4.3e-12   5.9e-12
   6   3   0    5   3   1    2.7e-11   2.8e-11   3.1e-11   3.3e-11   3.6e-11   4.3e-11   4.9e-11   6.0e-11
   6   3   0    6   0   1    1.0e-13   3.7e-13   1.1e-12   1.8e-12   2.5e-12   4.1e-12   5.9e-12   1.0e-11
   6   3   0    6   3   1    4.2e-11   4.2e-11   4.3e-11   4.4e-11   4.5e-11   4.9e-11   5.2e-11   5.9e-11
   6   3   0    6   6   1    1.4e-12   1.4e-12   1.6e-12   1.8e-12   2.1e-12   2.8e-12   3.5e-12   5.2e-12
   6   3   0    6   6   0    1.5e-12   1.6e-12   1.7e-12   1.8e-12   2.0e-12   2.3e-12   2.7e-12   3.5e-12
   6   6   1    0   0   1    6.8e-13   6.8e-13   7.1e-13   7.9e-13   8.8e-13   1.1e-12   1.3e-12   1.8e-12
   6   6   1    1   0   0    1.9e-13   1.7e-13   1.7e-13   1.8e-13   2.1e-13   2.8e-13   3.8e-13   6.0e-13
   6   6   1    2   0   1    2.0e-12   2.0e-12   2.1e-12   2.3e-12   2.6e-12   3.2e-12   3.9e-12   5.3e-12
   6   6   1    3   0   0    6.6e-13   6.5e-13   7.1e-13   8.4e-13   1.0e-12   1.5e-12   2.0e-12   3.4e-12
   6   6   1    3   3   0    3.7e-12   3.5e-12   3.7e-12   4.1e-12   4.6e-12   5.9e-12   7.3e-12   1.0e-11
   6   6   1    3   3   1    2.0e-11   2.0e-11   2.1e-11   2.2e-11   2.3e-11   2.6e-11   2.9e-11   3.5e-11
   6   6   1    4   0   1    7.3e-13   7.2e-13   7.8e-13   9.0e-13   1.0e-12   1.4e-12   1.8e-12   2.6e-12
   6   6   1    4   3   1    1.5e-11   1.4e-11   1.4e-11   1.5e-11   1.5e-11   1.7e-11   1.8e-11   2.1e-11
   6   6   1    4   3   0    7.2e-12   6.9e-12   7.0e-12   7.6e-12   8.4e-12   1.0e-11   1.3e-11   1.7e-11
   6   6   1    5   0   0    6.0e-14   9.8e-14   1.8e-13   2.8e-13   4.0e-13   7.1e-13   1.1e-12   2.3e-12
   6   6   1    5   3   0    2.5e-12   2.5e-12   2.7e-12   3.1e-12   3.6e-12   4.9e-12   6.4e-12   9.6e-12
   6   6   1    5   3   1    3.6e-12   3.6e-12   3.9e-12   4.3e-12   4.7e-12   5.6e-12   6.4e-12   8.0e-12
   6   6   1    6   0   1    6.2e-19   9.7e-17   4.8e-15   2.0e-14   4.6e-14   1.3e-13   2.5e-13   5.9e-13
   6   6   1    6   3   1    1.3e-16   5.7e-15   1.0e-13   2.8e-13   4.8e-13   9.0e-13   1.3e-12   2.1e-12
   6   6   1    6   3   0    1.1e-16   5.1e-15   9.5e-14   2.8e-13   5.1e-13   1.1e-12   1.7e-12   3.3e-12
   6   6   1    6   6   0    1.4e-10   1.4e-10   1.4e-10   1.5e-10   1.5e-10   1.6e-10   1.8e-10   2.0e-10
   6   6   0    0   0   1    1.5e-14   1.0e-14   6.0e-15   4.7e-15   4.2e-15   4.2e-15   4.6e-15   6.2e-15
   6   6   0    1   0   0    1.7e-12   1.7e-12   1.8e-12   2.0e-12   2.2e-12   2.8e-12   3.4e-12   4.6e-12
   6   6   0    2   0   1    5.0e-13   4.8e-13   5.0e-13   5.8e-13   6.8e-13   9.5e-13   1.3e-12   2.1e-12
   6   6   0    3   0   0    1.5e-12   1.5e-12   1.6e-12   1.8e-12   2.0e-12   2.5e-12   3.1e-12   4.2e-12
   6   6   0    3   3   0    2.0e-11   2.0e-11   2.1e-11   2.2e-11   2.3e-11   2.6e-11   2.9e-11   3.5e-11
   6   6   0    3   3   1    3.7e-12   3.6e-12   3.7e-12   4.1e-12   4.7e-12   5.9e-12   7.3e-12   1.0e-11
   6   6   0    4   0   1    5.3e-13   5.2e-13   5.8e-13   7.0e-13   8.8e-13   1.3e-12   1.9e-12   3.5e-12
   6   6   0    4   3   1    7.1e-12   6.9e-12   7.0e-12   7.6e-12   8.4e-12   1.0e-11   1.3e-11   1.7e-11
   6   6   0    4   3   0    1.5e-11   1.4e-11   1.4e-11   1.5e-11   1.5e-11   1.7e-11   1.8e-11   2.1e-11
   6   6   0    5   0   0    6.2e-14   1.0e-13   1.8e-13   2.5e-13   3.3e-13   5.1e-13   7.3e-13   1.2e-12
   6   6   0    5   3   0    6.6e-12   5.8e-12   5.0e-12   4.9e-12   5.2e-12   5.8e-12   6.6e-12   8.0e-12
   6   6   0    5   3   1    2.4e-12   2.4e-12   2.6e-12   3.1e-12   3.6e-12   4.9e-12   6.4e-12   9.6e-12
   6   6   0    6   0   1    7.8e-19   1.2e-16   6.2e-15   2.7e-14   6.5e-14   1.9e-13   3.9e-13   1.0e-12
   6   6   0    6   3   1    1.2e-16   5.2e-15   9.7e-14   2.8e-13   5.2e-13   1.1e-12   1.7e-12   3.2e-12
   6   6   0    6   3   0    1.2e-16   5.5e-15   9.9e-14   2.7e-13   4.8e-13   9.1e-13   1.3e-12   2.2e-12
   6   6   0    6   6   1    1.4e-10   1.4e-10   1.4e-10   1.5e-10   1.5e-10   1.6e-10   1.8e-10   2.0e-10
