26
20. 40. 60. 80. 100. 120. 140. 160. 180. 200. 250. 300. 350. 400. 450. 500. 600. 700. 800. 900. 1000. 1100. 1200. 1300. 1400. 1500.
2 1 8e-11 9.5e-11 1.11e-10 1.25e-10 1.37e-10 1.48e-10 1.58e-10 1.67e-10 1.75e-10 1.83e-10 1.99e-10 2.14e-10 2.26e-10 2.37e-10 2.47e-10 2.57e-10 2.74e-10 2.9e-10 3.05e-10 3.19e-10 3.32e-10 1.44e-10 3.55e-10 3.65e-10 3.74e-10 3.82e-10 
1 0 9.4e-11 1.77e-10 1.9e-10 2.06e-10 2.23e-10 2.38e-10 2.54e-10 2.68e-10 2.81e-10 2.94e-10 3.21e-10 3.44e-10 3.64e-10 3.8e-10 3.95e-10 4.08e-10 4.31e-10 4.51e-10 4.69e-10 4.86e-10 5.01e-10 5.16e-10 5.29e-10 5.4e-10 5.5e-10 5.59e-10 
2 0 9e-13 1.7e-12 2e-12 2.5e-12 3e-12 3.6e-12 4.3e-12 5e-12 5.8e-12 6.6e-12 8.7e-12 1.1e-11 1.35e-11 1.59e-11 1.85e-11 2.1e-11 2.59e-11 3.06e-11 3.51e-11 3.94e-11 4.33e-11 4.7e-11 5.03e-11 5.33e-11 5.6e-11 5.84e-11 
